#=======================================================
# FHI-aims file: /nfshome/store03/users/c.c1809139/PhD/CO2_on_surfaces/100/100_def2/CO2_5_carbonate/geometry.in
# Created using the Atomic Simulation Environment (ASE)
# Mon Jun 26 14:46:48 2023
#=======================================================
lattice_vector 13.0879999999999992 0.0000000000000000 0.0000000000000000 
lattice_vector 0.0000000000000000 10.5478199999999998 0.0000000000000000 
lattice_vector 0.0000000000000000 0.0000000000000000 31.1700000000000017 
atom 0.0000000000000000 5.2597231821000001 9.4454451000000006 Zn
    constrain_relaxation .true.
atom 0.0000000000000000 2.0314573928999997 9.4454451000000006 O
    constrain_relaxation .true.
atom 1.6358691200000000 4.6684123928999997 10.3898961000000014 O
    constrain_relaxation .true.
atom 1.6359999999999999 2.6227681820999997 10.3898961000000014 Zn
    constrain_relaxation .true.
atom 1.6359999999999999 5.2597231821000001 12.2791098000000005 Zn
    constrain_relaxation .true.
atom 1.6359999999999999 2.0314573928999997 12.2791098000000005 O
    constrain_relaxation .true.
atom 3.2718691199999999 4.6684123928999997 13.2235608000000013 O
    constrain_relaxation .true.
atom 0.0000000000000000 2.6227681820999997 13.2235608000000013 Zn
    constrain_relaxation .true.
atom 0.0000000000000000 5.2597231821000001 15.1127744999999916 Zn
    constrain_relaxation .true.
atom 0.0000000000000000 2.0314573928999997 15.1127744999999916 O
    constrain_relaxation .true.
atom 1.6358691200000000 4.6684123928999997 16.0572255000000013 O
    constrain_relaxation .true.
atom 1.6359999999999999 2.6227681820999997 16.0572255000000013 Zn
    constrain_relaxation .true.
atom 1.6359999999999999 5.2597231821000001 17.9464392000000039 Zn
    constrain_relaxation .true.
atom 1.6359999999999999 2.0314573928999997 17.9464392000000039 O
    constrain_relaxation .true.
atom 3.3057147295536313 4.6750673223723798 18.9522984867466313 O
atom -0.0002655002599524 2.6840203286432249 18.8143984563423921 Zn
atom 0.0009931082913309 5.3261277904801245 20.8613153117377195 Zn
atom -0.0008676939161932 2.0442111337701756 20.7630183943673607 O
atom 1.6397249255455981 4.6962171982116061 21.6547031942771468 O
atom 1.6327460895449042 2.8623032877045280 21.3700957714050048 Zn
atom 0.0000000000000000 10.5336331821000009 9.4454451000000006 Zn
    constrain_relaxation .true.
atom 0.0000000000000000 7.3053673928999991 9.4454451000000006 O
    constrain_relaxation .true.
atom 1.6358691200000000 9.9423223928999995 10.3898961000000014 O
    constrain_relaxation .true.
atom 1.6359999999999999 7.8966781820999996 10.3898961000000014 Zn
    constrain_relaxation .true.
atom 1.6359999999999999 10.5336331821000009 12.2791098000000005 Zn
    constrain_relaxation .true.
atom 1.6359999999999999 7.3053673928999991 12.2791098000000005 O
    constrain_relaxation .true.
atom 3.2718691199999999 9.9423223928999995 13.2235608000000013 O
    constrain_relaxation .true.
atom 0.0000000000000000 7.8966781820999996 13.2235608000000013 Zn
    constrain_relaxation .true.
atom 0.0000000000000000 10.5336331821000009 15.1127744999999916 Zn
    constrain_relaxation .true.
atom 0.0000000000000000 7.3053673928999991 15.1127744999999916 O
    constrain_relaxation .true.
atom 1.6358691200000000 9.9423223928999995 16.0572255000000013 O
    constrain_relaxation .true.
atom 1.6359999999999999 7.8966781820999996 16.0572255000000013 Zn
    constrain_relaxation .true.
atom 1.6359999999999999 10.5336331821000009 17.9464392000000039 Zn
    constrain_relaxation .true.
atom 1.6359999999999999 7.3053673928999991 17.9464392000000039 O
    constrain_relaxation .true.
atom 3.2729899348793374 9.9455653495884793 18.8909953504582582 O
atom -0.0002200075936465 7.9653625645985189 18.8146463272700686 Zn
atom 0.0001502329936126 10.5934436847058553 20.8625474621948683 Zn
atom -0.0003194274744444 7.3121878038925425 20.7632110153080944 O
atom 1.6390013057110635 9.9736560513762296 21.6542827664992430 O
atom 1.6337416064332064 8.1443803641573425 21.3666106004853553 Zn
atom 3.2719999999999998 5.2597231821000001 9.4454451000000006 Zn
    constrain_relaxation .true.
atom 3.2719999999999998 2.0314573928999997 9.4454451000000006 O
    constrain_relaxation .true.
atom 4.9078691200000000 4.6684123928999997 10.3898961000000014 O
    constrain_relaxation .true.
atom 4.9079999999999995 2.6227681820999997 10.3898961000000014 Zn
    constrain_relaxation .true.
atom 4.9079999999999995 5.2597231821000001 12.2791098000000005 Zn
    constrain_relaxation .true.
atom 4.9079999999999995 2.0314573928999997 12.2791098000000005 O
    constrain_relaxation .true.
atom 6.5438691199999992 4.6684123928999997 13.2235608000000013 O
    constrain_relaxation .true.
atom 3.2719999999999998 2.6227681820999997 13.2235608000000013 Zn
    constrain_relaxation .true.
atom 3.2719999999999998 5.2597231821000001 15.1127744999999916 Zn
    constrain_relaxation .true.
atom 3.2719999999999998 2.0314573928999997 15.1127744999999916 O
    constrain_relaxation .true.
atom 4.9078691200000000 4.6684123928999997 16.0572255000000013 O
    constrain_relaxation .true.
atom 4.9079999999999995 2.6227681820999997 16.0572255000000013 Zn
    constrain_relaxation .true.
atom 4.9079999999999995 5.2597231821000001 17.9464392000000039 Zn
    constrain_relaxation .true.
atom 4.9079999999999995 2.0314573928999997 17.9464392000000039 O
    constrain_relaxation .true.
atom 6.5239886203802531 4.6783813088788468 18.9882380398001693 O
atom 3.2698149165493304 2.6689867805799152 18.8115014256493431 Zn
atom 3.2484825360194360 5.3410252632253536 20.8951548866890313 Zn
atom 3.3004088353628034 2.0820486747023637 20.7667577445636056 O
atom 4.9035238897836892 2.9284399402995103 21.4804343816272301 Zn
atom 3.2719999999999998 10.5336331821000009 9.4454451000000006 Zn
    constrain_relaxation .true.
atom 3.2719999999999998 7.3053673928999991 9.4454451000000006 O
    constrain_relaxation .true.
atom 4.9078691200000000 9.9423223928999995 10.3898961000000014 O
    constrain_relaxation .true.
atom 4.9079999999999995 7.8966781820999996 10.3898961000000014 Zn
    constrain_relaxation .true.
atom 4.9079999999999995 10.5336331821000009 12.2791098000000005 Zn
    constrain_relaxation .true.
atom 4.9079999999999995 7.3053673928999991 12.2791098000000005 O
    constrain_relaxation .true.
atom 6.5438691199999992 9.9423223928999995 13.2235608000000013 O
    constrain_relaxation .true.
atom 3.2719999999999998 7.8966781820999996 13.2235608000000013 Zn
    constrain_relaxation .true.
atom 3.2719999999999998 10.5336331821000009 15.1127744999999916 Zn
    constrain_relaxation .true.
atom 3.2719999999999998 7.3053673928999991 15.1127744999999916 O
    constrain_relaxation .true.
atom 4.9078691200000000 9.9423223928999995 16.0572255000000013 O
    constrain_relaxation .true.
atom 4.9079999999999995 7.8966781820999996 16.0572255000000013 Zn
    constrain_relaxation .true.
atom 4.9079999999999995 10.5336331821000009 17.9464392000000039 Zn
    constrain_relaxation .true.
atom 4.9079999999999995 7.3053673928999991 17.9464392000000039 O
    constrain_relaxation .true.
atom 6.5443299198136922 9.9460711640507959 18.8918053682181615 O
atom 3.2702907451482148 7.9676602673559165 18.8096419944529458 Zn
atom 3.2732724384458298 10.5951532263272838 20.8640607321762843 Zn
atom 3.2837664338595918 7.2910072865725741 20.7646842477962998 O
atom 4.9093600289781909 9.9764558084122505 21.6545295710345620 O
atom 4.9028707540106877 8.1517884547322179 21.3776133965933361 Zn
atom 6.5439999999999996 5.2597231821000001 9.4454451000000006 Zn
    constrain_relaxation .true.
atom 6.5439999999999996 2.0314573928999997 9.4454451000000006 O
    constrain_relaxation .true.
atom 8.1798691199999993 4.6684123928999997 10.3898961000000014 O
    constrain_relaxation .true.
atom 8.1799999999999997 2.6227681820999997 10.3898961000000014 Zn
    constrain_relaxation .true.
atom 8.1799999999999997 5.2597231821000001 12.2791098000000005 Zn
    constrain_relaxation .true.
atom 8.1799999999999997 2.0314573928999997 12.2791098000000005 O
    constrain_relaxation .true.
atom 9.8158691199999986 4.6684123928999997 13.2235608000000013 O
    constrain_relaxation .true.
atom 6.5439999999999996 2.6227681820999997 13.2235608000000013 Zn
    constrain_relaxation .true.
atom 6.5439999999999996 5.2597231821000001 15.1127744999999916 Zn
    constrain_relaxation .true.
atom 6.5439999999999996 2.0314573928999997 15.1127744999999916 O
    constrain_relaxation .true.
atom 8.1798691199999993 4.6684123928999997 16.0572255000000013 O
    constrain_relaxation .true.
atom 8.1799999999999997 2.6227681820999997 16.0572255000000013 Zn
    constrain_relaxation .true.
atom 8.1799999999999997 5.2597231821000001 17.9464392000000039 Zn
    constrain_relaxation .true.
atom 8.1799999999999997 2.0314573928999997 17.9464392000000039 O
    constrain_relaxation .true.
atom 9.7870047933604774 4.6747408746951153 18.9369014430114966 O
atom 6.5446833188007627 2.6522396689702448 18.8097698549830348 Zn
atom 6.5043012542030159 5.3606971291429231 20.8096420143240479 Zn
atom 6.5196551566778904 2.1035460578356431 20.7629791322376924 O
atom 7.7533958132455103 4.5874843371107215 22.1628605732311641 O
atom 8.1601613797213375 2.9859569739690444 21.4568817237707847 Zn
atom 6.5439999999999996 10.5336331821000009 9.4454451000000006 Zn
    constrain_relaxation .true.
atom 6.5439999999999996 7.3053673928999991 9.4454451000000006 O
    constrain_relaxation .true.
atom 8.1798691199999993 9.9423223928999995 10.3898961000000014 O
    constrain_relaxation .true.
atom 8.1799999999999997 7.8966781820999996 10.3898961000000014 Zn
    constrain_relaxation .true.
atom 8.1799999999999997 10.5336331821000009 12.2791098000000005 Zn
    constrain_relaxation .true.
atom 8.1799999999999997 7.3053673928999991 12.2791098000000005 O
    constrain_relaxation .true.
atom 9.8158691199999986 9.9423223928999995 13.2235608000000013 O
    constrain_relaxation .true.
atom 6.5439999999999996 7.8966781820999996 13.2235608000000013 Zn
    constrain_relaxation .true.
atom 6.5439999999999996 10.5336331821000009 15.1127744999999916 Zn
    constrain_relaxation .true.
atom 6.5439999999999996 7.3053673928999991 15.1127744999999916 O
    constrain_relaxation .true.
atom 8.1798691199999993 9.9423223928999995 16.0572255000000013 O
    constrain_relaxation .true.
atom 8.1799999999999997 7.8966781820999996 16.0572255000000013 Zn
    constrain_relaxation .true.
atom 8.1799999999999997 10.5336331821000009 17.9464392000000039 Zn
    constrain_relaxation .true.
atom 8.1799999999999997 7.3053673928999991 17.9464392000000039 O
    constrain_relaxation .true.
atom 9.8148109519231603 9.9447229942969972 18.8914247858191935 O
atom 6.5431842247286758 7.9726416296649640 18.8055986216656024 Zn
atom 6.5427304619642568 10.5966898710464754 20.8641524250929145 Zn
atom 6.5240653065071257 7.2929525577167365 20.7562305561266243 O
atom 8.1763481276752277 9.9707513426538732 21.6520971099231296 O
atom 8.1775552023928668 8.1393601422554447 21.3807307270310609 Zn
atom 9.8159999999999989 5.2597231821000001 9.4454451000000006 Zn
    constrain_relaxation .true.
atom 9.8159999999999989 2.0314573928999997 9.4454451000000006 O
    constrain_relaxation .true.
atom 11.4518691199999996 4.6684123928999997 10.3898961000000014 O
    constrain_relaxation .true.
atom 11.4519999999999982 2.6227681820999997 10.3898961000000014 Zn
    constrain_relaxation .true.
atom 11.4519999999999982 5.2597231821000001 12.2791098000000005 Zn
    constrain_relaxation .true.
atom 11.4519999999999982 2.0314573928999997 12.2791098000000005 O
    constrain_relaxation .true.
atom 13.0878691200000006 4.6684123928999997 13.2235608000000013 O
    constrain_relaxation .true.
atom 9.8159999999999989 2.6227681820999997 13.2235608000000013 Zn
    constrain_relaxation .true.
atom 9.8159999999999989 5.2597231821000001 15.1127744999999916 Zn
    constrain_relaxation .true.
atom 9.8159999999999989 2.0314573928999997 15.1127744999999916 O
    constrain_relaxation .true.
atom 11.4518691199999996 4.6684123928999997 16.0572255000000013 O
    constrain_relaxation .true.
atom 11.4519999999999982 2.6227681820999997 16.0572255000000013 Zn
    constrain_relaxation .true.
atom 11.4519999999999982 5.2597231821000001 17.9464392000000039 Zn
    constrain_relaxation .true.
atom 11.4519999999999982 2.0314573928999997 17.9464392000000039 O
    constrain_relaxation .true.
atom 13.0878224321014862 4.6709999652232694 18.8926028840460525 O
atom 9.8169657315027550 2.6720029674411689 18.8128483369408812 Zn
atom 9.8146960570036548 5.3290269412983031 20.8646114493862491 Zn
atom 9.7786091102903168 2.0833148086775304 20.7799400260436364 O
atom 11.4182358886867288 4.7004149891029074 21.6630654369768045 O
atom 11.4582945287490805 2.8601444687031559 21.3673884462379462 Zn
atom 9.8159999999999989 10.5336331821000009 9.4454451000000006 Zn
    constrain_relaxation .true.
atom 9.8159999999999989 7.3053673928999991 9.4454451000000006 O
    constrain_relaxation .true.
atom 11.4518691199999996 9.9423223928999995 10.3898961000000014 O
    constrain_relaxation .true.
atom 11.4519999999999982 7.8966781820999996 10.3898961000000014 Zn
    constrain_relaxation .true.
atom 11.4519999999999982 10.5336331821000009 12.2791098000000005 Zn
    constrain_relaxation .true.
atom 11.4519999999999982 7.3053673928999991 12.2791098000000005 O
    constrain_relaxation .true.
atom 13.0878691200000006 9.9423223928999995 13.2235608000000013 O
    constrain_relaxation .true.
atom 9.8159999999999989 7.8966781820999996 13.2235608000000013 Zn
    constrain_relaxation .true.
atom 9.8159999999999989 10.5336331821000009 15.1127744999999916 Zn
    constrain_relaxation .true.
atom 9.8159999999999989 7.3053673928999991 15.1127744999999916 O
    constrain_relaxation .true.
atom 11.4518691199999996 9.9423223928999995 16.0572255000000013 O
    constrain_relaxation .true.
atom 11.4519999999999982 7.8966781820999996 16.0572255000000013 Zn
    constrain_relaxation .true.
atom 11.4519999999999982 10.5336331821000009 17.9464392000000039 Zn
    constrain_relaxation .true.
atom 11.4519999999999982 7.3053673928999991 17.9464392000000039 O
    constrain_relaxation .true.
atom 13.0881307205280866 9.9448276839687004 18.8884942894111383 O
atom 9.8179947555155280 7.9672392803125129 18.8090854826145986 Zn
atom 9.8143468494775945 10.5929969019804702 20.8642845422084093 Zn
atom 9.8042528291695845 7.2834044241611071 20.7703393510405867 O
atom 11.4489560768621441 9.9735942551735892 21.6552921594474590 O
atom 11.4562597591875068 8.1452057508582261 21.3665570514272467 Zn
atom 6.3555636456879121 4.4076790162908361 23.2785058449657143 C
atom 6.3669738133796407 4.6172229443247668 24.9729378528236126 O
atom 4.9607823986945192 4.6138371771212414 22.1796813143389784 O
