 C 
 1.0000000000000000
     8.7787256239999998    0.0000000000000000    0.0000000000000005
    -0.0000000000000008   12.6709997654999977    6.6824002265999995
     0.0000000000000000    0.0000000000000000   33.4120011330000040
  80
Cartesian
 -0.0000000000000003  5.0683999061999998 16.3860376851451086
 -0.0000000000000002  2.5341999530999999 16.3860376851451086
  0.0000000000000000  0.0000000000000000 16.3860376851451086
  2.1946814059999995  3.8012999296499999 16.3860376851451086
  2.1946814059999999  1.2670999765500000 16.3860376851451086
  4.3893628119999999  5.0683999061999998 16.3860376851451086
  4.3893628119999999  2.5341999530999999 16.3860376851451086
  4.3893628119999999  0.0000000000000000 16.3860376851451086
  6.5840442179999989  3.8012999296499999 16.3860376851451086
  6.5840442179999998  1.2670999765500000 16.3860376851451086
  0.7130274654393691  3.8334000373163284 16.4199877598267570
  0.7130274654393692  1.2992000842163287 16.4199877598267570
  2.9077088714393691  5.1005000138663288 16.4199877598267570
  2.9077088714393695  2.5663000607663289 16.4199877598267570
  2.9077088714393695  0.0321001076663290 16.4199877598267570
  5.1023902774393690  3.8334000373163284 16.4199877598267570
  5.1023902774393690  1.2992000842163287 16.4199877598267570
  7.2970716834393690  5.1005000138663288 16.4199877598267570
  7.2970716834393698  2.5663000607663289 16.4199877598267570
  7.2970716834393698  0.0321001076663290 16.4199877598267570
  2.1946814059999995  8.8696998358499997 19.6734379412335549
  6.5840442179999989  8.8696998358499997 19.6734379412335549
  4.3893628119999999  2.5341999530999999 19.6734379412335585
  4.3893628119999999  0.0000000000000000 19.6734379412335585
 -0.0000000000000002  2.5341999530999999 19.6734379412335585
  6.5840442179999989  6.3354998827500006 19.6734379412335585
  6.5840442179999989  3.8012999296499999 19.6734379412335585
  6.5840442179999989 11.4038997889499978 19.6734379412335585
  0.0000000000000000  0.0000000000000000 19.6734379412335585
 -0.0000000000000006 10.1367998123999996 19.6734379412335585
  2.1946814059999995  6.3354998827500006 19.6734379412335585
  2.1946814059999995  3.8012999296499999 19.6734379412335585
  2.1946814059999991 11.4038997889499978 19.6734379412335585
 -0.0000000000000005  7.6025998592999997 19.6734379412335585
 -0.0000000000000003  5.0683999061999998 19.6734379412335585
  4.3893628119999990 10.1367998123999996 19.6734379412335585
  4.3893628119999990  7.6025998592999997 19.6734379412335585
  4.3893628119999999  5.0683999061999998 19.6734379412335585
  6.5840442179999998  1.2670999765500000 19.6734379412335620
  2.1946814059999999  1.2670999765500000 19.6734379412335620
  8.0100991444893754  8.8696998358499997 19.7073879357263984
  8.0100991444893754  6.3354998827500006 19.7073879357263984
  8.0100991444893754  3.8012999296499999 19.7073879357263984
  1.4260550581702591 10.1367998123999996 19.7073879357263984
  3.6207363324893755  8.8696998358499997 19.7073879357263984
  3.6207363324893755  6.3354998827500006 19.7073879357263984
  3.6207363324893755  3.8012999296499999 19.7073879357263984
  5.8154178701702595 10.1367998123999996 19.7073879357263984
  5.8154178701702595  2.5341999530999999 19.7073879357264019
  5.8154178701702595  0.0000000000000000 19.7073879357264019
  1.4260550581702596  2.5341999530999999 19.7073879357264019
  3.6207363324893760  1.2670999765500000 19.7073879357264019
  3.6207363324893751 11.4038997889499978 19.7073879357264019
  8.0100991444893754  1.2670999765500000 19.7073879357264019
  8.0100991444893754 11.4038997889499978 19.7073879357264019
  1.4260550581702598  0.0000000000000000 19.7073879357264019
  1.4260550581702593  7.6025998592999997 19.7073879357264019
  1.4260550581702596  5.0683999061999998 19.7073879357264019
  5.8154178701702595  7.6025998592999997 19.7073879357264019
  5.8154178701702595  5.0683999061999998 19.7073879357264019
  6.5840442179999989 11.4038997889499978 23.0684379117451073
 -0.0000000000000005  7.6025998592999997 23.0684379117451073
  2.1946814059999995  8.8696998358499997 23.0684379117451073
  2.1946814059999991 11.4038997889499978 23.0684379117451073
  6.5840442179999989  8.8696998358499997 23.0684379117451073
  6.5840442179999989  6.3354998827500006 23.0684379117451073
  2.1946814059999995  6.3354998827500006 23.0684379117451073
  4.3893628119999990  7.6025998592999997 23.0684379117451073
 -0.0000000000000006 10.1367998123999996 23.0684379117451108
  4.3893628119999990 10.1367998123999996 23.0684379117451108
  5.1023902774393690  8.9017999435163269 23.1023879864267556
  5.1023902774393690  6.3675999904163287 23.1023879864267556
  2.9077088714393691  7.6346999669663278 23.1023879864267556
  0.7130274654393688  8.9017999435163269 23.1023879864267556
  5.1023902774393690 11.4359998966163268 23.1023879864267556
  7.2970716834393690  7.6346999669663278 23.1023879864267556
  0.7130274654393689  6.3675999904163287 23.1023879864267556
  0.7130274654393687 11.4359998966163268 23.1023879864267556
  2.9077088714393691 10.1688999200663268 23.1023879864267556
  7.2970716834393690 10.1688999200663268 23.1023879864267556
