#=======================================================
# FHI-aims file: ./geometry.in
# Created using the Atomic Simulation Environment (ASE)
# Fri Nov 17 16:25:16 2023
#=======================================================
lattice_vector 16.3029000000000011 0.0000000000000000 0.0000000000000000 
lattice_vector -8.1514499999999970 14.1187255553573259 0.0000000000000000 
lattice_vector 0.0000000000000000 0.0000000000000000 26.2228999999999992 
atom_frac 0.0666700000000000 0.9333300000000000 0.0380100000000000 O
atom_frac 0.2666700000000000 0.3333300000000000 0.0380100000000000 O
atom_frac 0.2666700000000000 0.5333300000000000 0.0380100000000000 O
atom_frac 0.2666700000000000 0.9333300000000000 0.0380100000000000 O
atom_frac 0.4666700000000000 0.1333300000000000 0.0380100000000000 O
atom_frac 0.4666700000000000 0.3333300000000000 0.0380100000000000 O
atom_frac 0.4666700000000000 0.5333300000000000 0.0380100000000000 O
atom_frac 0.4666700000000000 0.7333300000000000 0.0380100000000000 O
atom_frac 0.4666700000000000 0.9333300000000000 0.0380100000000000 O
atom_frac 0.6666700000000000 0.1333300000000000 0.0380100000000000 O
atom_frac 0.6666700000000000 0.5333300000000000 0.0380100000000000 O
atom_frac 0.6666700000000000 0.7333300000000000 0.0380100000000000 O
atom_frac 0.6666700000000000 0.9333300000000000 0.0380100000000000 O
atom_frac 0.8666700000000001 0.1333300000000000 0.0380100000000000 O
atom_frac 0.8666700000000001 0.3333300000000000 0.0380100000000000 O
atom_frac 0.8666700000000001 0.5333300000000000 0.0380100000000000 O
atom_frac 0.8666700000000001 0.7333300000000000 0.0380100000000000 O
atom_frac 0.8666700000000001 0.9333300000000000 0.0380100000000000 O
atom_frac 0.5333300000000002 0.4666699999999999 0.0619900000000000 Zn
atom_frac 0.3333300000000000 0.2666700000000000 0.0619900000000000 Zn
atom_frac 0.5333300000000002 0.6666700000000000 0.0619900000000000 Zn
atom_frac 0.1333300000000000 0.6666700000000000 0.0619900000000000 Zn
atom_frac 0.5333300000000002 0.8666699999999999 0.0619900000000000 Zn
atom_frac 0.3333300000000000 0.4666699999999999 0.0619900000000000 Zn
atom_frac 0.7333300000000000 0.0666700000000000 0.0619900000000000 Zn
atom_frac 0.1333300000000000 0.0666700000000000 0.0619900000000000 Zn
atom_frac 0.7333300000000000 0.2666700000000000 0.0619900000000000 Zn
atom_frac 0.3333300000000000 0.6666700000000000 0.0619900000000000 Zn
atom_frac 0.7333299999999999 0.4666699999999999 0.0619900000000000 Zn
atom_frac 0.1333299999999999 0.8666699999999999 0.0619900000000000 Zn
atom_frac 0.7333300000000000 0.6666700000000000 0.0619900000000000 Zn
atom_frac 0.3333300000000000 0.8666699999999999 0.0619900000000000 Zn
atom_frac 0.7333300000000000 0.8666699999999999 0.0619900000000000 Zn
atom_frac 0.1333300000000000 0.4666699999999999 0.0619900000000000 Zn
atom_frac 0.9333300000000000 0.0666700000000000 0.0619900000000000 Zn
atom_frac 0.5333300000000002 0.0666700000000000 0.0619900000000000 Zn
atom_frac 0.9333300000000000 0.2666700000000000 0.0619900000000000 Zn
atom_frac 0.3333300000000000 0.0666700000000000 0.0619900000000000 Zn
atom_frac 0.9333299999999999 0.4666699999999999 0.0619900000000000 Zn
atom_frac 0.5333300000000002 0.2666700000000000 0.0619900000000000 Zn
atom_frac 0.9333300000000000 0.6666700000000000 0.0619900000000000 Zn
atom_frac 0.1333300000000000 0.2666700000000000 0.0619900000000000 Zn
atom_frac 0.9333299999999999 0.8666699999999999 0.0619900000000000 Zn
atom_frac 0.7333300000000000 0.2666700000000000 0.1380100000000000 O
atom_frac 0.3333300000000000 0.4666699999999999 0.1380100000000000 O
atom_frac 0.5333300000000002 0.2666700000000000 0.1380100000000000 O
atom_frac 0.7333299999999999 0.4666699999999999 0.1380100000000000 O
atom_frac 0.1333300000000000 0.6666700000000000 0.1380100000000000 O
atom_frac 0.3333300000000000 0.0666700000000000 0.1380100000000000 O
atom_frac 0.7333300000000000 0.6666700000000000 0.1380100000000000 O
atom_frac 0.5333300000000002 0.4666699999999999 0.1380100000000000 O
atom_frac 0.3333300000000000 0.6666700000000000 0.1380100000000000 O
atom_frac 0.7333300000000000 0.8666699999999999 0.1380100000000000 O
atom_frac 0.1333300000000000 0.4666699999999999 0.1380100000000000 O
atom_frac 0.5333300000000002 0.6666700000000000 0.1380100000000000 O
atom_frac 0.9333300000000000 0.0666700000000000 0.1380100000000000 O
atom_frac 0.1333300000000000 0.0666700000000000 0.1380100000000000 O
atom_frac 0.3333300000000000 0.8666699999999999 0.1380100000000000 O
atom_frac 0.9333300000000000 0.2666700000000000 0.1380100000000000 O
atom_frac 0.5333300000000002 0.8666699999999999 0.1380100000000000 O
atom_frac 0.3333300000000000 0.2666700000000000 0.1380100000000000 O
atom_frac 0.9333299999999999 0.4666699999999999 0.1380100000000000 O
atom_frac 0.1333299999999999 0.8666699999999999 0.1380100000000000 O
atom_frac 0.7333300000000000 0.0666700000000000 0.1380100000000000 O
atom_frac 0.9333300000000000 0.6666700000000000 0.1380100000000000 O
atom_frac 0.5333300000000002 0.0666700000000000 0.1380100000000000 O
atom_frac 0.1333300000000000 0.2666700000000000 0.1380100000000000 O
atom_frac 0.9333299999999999 0.8666699999999999 0.1380100000000000 O
atom_frac 0.6666700000000000 0.7333300000000000 0.1619900000000000 Zn
atom_frac 0.4666700000000000 0.1333300000000000 0.1619900000000000 Zn
atom_frac 0.0666700000000000 0.9333300000000000 0.1619900000000000 Zn
atom_frac 0.4666700000000000 0.9333300000000000 0.1619900000000000 Zn
atom_frac 0.6666700000000000 0.9333300000000000 0.1619900000000000 Zn
atom_frac 0.0666700000000000 0.7333300000000000 0.1619900000000000 Zn
atom_frac 0.2666700000000000 0.7333300000000000 0.1619900000000000 Zn
atom_frac 0.4666700000000000 0.3333300000000000 0.1619900000000000 Zn
atom_frac 0.8666700000000001 0.1333300000000000 0.1619900000000000 Zn
atom_frac 0.6666700000000000 0.1333300000000000 0.1619900000000000 Zn
atom_frac 0.2666700000000000 0.3333300000000000 0.1619900000000000 Zn
atom_frac 0.0666700000000000 0.3333300000000000 0.1619900000000000 Zn
atom_frac 0.8666700000000001 0.3333300000000000 0.1619900000000000 Zn
atom_frac 0.0666700000000000 0.1333300000000000 0.1619900000000000 Zn
atom_frac 0.6666700000000000 0.3333300000000000 0.1619900000000000 Zn
atom_frac 0.4666700000000000 0.5333300000000000 0.1619900000000000 Zn
atom_frac 0.8666700000000001 0.5333300000000000 0.1619900000000000 Zn
atom_frac 0.2666700000000000 0.9333300000000000 0.1619900000000000 Zn
atom_frac 0.2666700000000000 0.1333300000000000 0.1619900000000000 Zn
atom_frac 0.6666700000000000 0.5333300000000000 0.1619900000000000 Zn
atom_frac 0.8666700000000001 0.7333300000000000 0.1619900000000000 Zn
atom_frac 0.2666700000000000 0.5333300000000000 0.1619900000000000 Zn
atom_frac 0.4666700000000000 0.7333300000000000 0.1619900000000000 Zn
atom_frac 0.0666700000000000 0.5333300000000000 0.1619900000000000 Zn
atom_frac 0.8666700000000001 0.9333300000000000 0.1619900000000000 Zn
atom_frac 0.4666700000000000 0.5333300000000000 0.2380100000000000 O
atom_frac 0.2666700000000000 0.3333300000000000 0.2380100000000000 O
atom_frac 0.0666700000000000 0.7333300000000000 0.2380100000000000 O
atom_frac 0.4666700000000000 0.1333300000000000 0.2380100000000000 O
atom_frac 0.8666700000000001 0.1333300000000000 0.2380100000000000 O
atom_frac 0.6666700000000000 0.3333300000000000 0.2380100000000000 O
atom_frac 0.2666700000000000 0.7333300000000000 0.2380100000000000 O
atom_frac 0.4666700000000000 0.7333300000000000 0.2380100000000000 O
atom_frac 0.2666700000000000 0.1333300000000000 0.2380100000000000 O
atom_frac 0.8666700000000001 0.3333300000000000 0.2380100000000000 O
atom_frac 0.0666700000000000 0.9333300000000000 0.2380100000000000 O
atom_frac 0.6666700000000000 0.5333300000000000 0.2380100000000000 O
atom_frac 0.0666700000000000 0.3333300000000000 0.2380100000000000 O
atom_frac 0.4666700000000000 0.3333300000000000 0.2380100000000000 O
atom_frac 0.8666700000000001 0.5333300000000000 0.2380100000000000 O
atom_frac 0.4666700000000000 0.9333300000000000 0.2380100000000000 O
atom_frac 0.2666700000000000 0.5333300000000000 0.2380100000000000 O
atom_frac 0.6666700000000000 0.7333300000000000 0.2380100000000000 O
atom_frac 0.2666700000000000 0.9333300000000000 0.2380100000000000 O
atom_frac 0.8666700000000001 0.7333300000000000 0.2380100000000000 O
atom_frac 0.0666700000000000 0.5333300000000000 0.2380100000000000 O
atom_frac 0.0666700000000000 0.1333300000000000 0.2380100000000000 O
atom_frac 0.6666700000000000 0.1333300000000000 0.2380100000000000 O
atom_frac 0.6666700000000000 0.9333300000000000 0.2380100000000000 O
atom_frac 0.8666700000000001 0.9333300000000000 0.2380100000000000 O
atom_frac 0.9333300000000000 0.0666700000000000 0.2619900000000000 Zn
atom_frac 0.1333300000000000 0.0666700000000000 0.2619900000000000 Zn
atom_frac 0.5333300000000002 0.8666699999999999 0.2619900000000000 Zn
atom_frac 0.7333299999999999 0.4666699999999999 0.2619900000000000 Zn
atom_frac 0.3333300000000000 0.6666700000000000 0.2619900000000000 Zn
atom_frac 0.1333300000000000 0.6666700000000000 0.2619900000000000 Zn
atom_frac 0.9333300000000000 0.2666700000000000 0.2619900000000000 Zn
atom_frac 0.5333300000000002 0.4666699999999999 0.2619900000000000 Zn
atom_frac 0.5333300000000002 0.0666700000000000 0.2619900000000000 Zn
atom_frac 0.1333300000000000 0.4666699999999999 0.2619900000000000 Zn
atom_frac 0.7333300000000000 0.6666700000000000 0.2619900000000000 Zn
atom_frac 0.7333300000000000 0.0666700000000000 0.2619900000000000 Zn
atom_frac 0.9333299999999999 0.4666699999999999 0.2619900000000000 Zn
atom_frac 0.3333300000000000 0.4666699999999999 0.2619900000000000 Zn
atom_frac 0.1333299999999999 0.8666699999999999 0.2619900000000000 Zn
atom_frac 0.3333300000000000 0.2666700000000000 0.2619900000000000 Zn
atom_frac 0.5333300000000002 0.6666700000000000 0.2619900000000000 Zn
atom_frac 0.7333300000000000 0.8666699999999999 0.2619900000000000 Zn
atom_frac 0.9333300000000000 0.6666700000000000 0.2619900000000000 Zn
atom_frac 0.3333300000000000 0.8666699999999999 0.2619900000000000 Zn
atom_frac 0.7333300000000000 0.2666700000000000 0.2619900000000000 Zn
atom_frac 0.5333300000000002 0.2666700000000000 0.2619900000000000 Zn
atom_frac 0.3333300000000000 0.0666700000000000 0.2619900000000000 Zn
atom_frac 0.1333300000000000 0.2666700000000000 0.2619900000000000 Zn
atom_frac 0.9333299999999999 0.8666699999999999 0.2619900000000000 Zn
atom_frac 0.7333300000000000 0.0666700000000000 0.3380100000000000 O
atom_frac 0.5333300000000002 0.2666700000000000 0.3380100000000000 O
atom_frac 0.5333300000000002 0.6666700000000000 0.3380100000000000 O
atom_frac 0.9333300000000000 0.2666700000000000 0.3380100000000000 O
atom_frac 0.7333300000000000 0.6666700000000000 0.3380100000000000 O
atom_frac 0.3333300000000000 0.6666700000000000 0.3380100000000000 O
atom_frac 0.3333300000000000 0.0666700000000000 0.3380100000000000 O
atom_frac 0.3333300000000000 0.4666699999999999 0.3380100000000000 O
atom_frac 0.3333300000000000 0.2666700000000000 0.3380100000000000 O
atom_frac 0.7333300000000000 0.2666700000000000 0.3380100000000000 O
atom_frac 0.9333299999999999 0.4666699999999999 0.3380100000000000 O
atom_frac 0.5333300000000002 0.0666700000000000 0.3380100000000000 O
atom_frac 0.7333300000000000 0.8666699999999999 0.3380100000000000 O
atom_frac 0.1333300000000000 0.6666700000000000 0.3380100000000000 O
atom_frac 0.5333300000000002 0.8666699999999999 0.3380100000000000 O
atom_frac 0.5333300000000002 0.4666699999999999 0.3380100000000000 O
atom_frac 0.1333300000000000 0.0666700000000000 0.3380100000000000 O
atom_frac 0.9333300000000000 0.6666700000000000 0.3380100000000000 O
atom_frac 0.1333300000000000 0.2666700000000000 0.3380100000000000 O
atom_frac 0.7333299999999999 0.4666699999999999 0.3380100000000000 O
atom_frac 0.9333300000000000 0.0666700000000000 0.3380100000000000 O
atom_frac 0.3333300000000000 0.8666699999999999 0.3380100000000000 O
atom_frac 0.1333299999999999 0.8666699999999999 0.3380100000000000 O
atom_frac 0.1333300000000000 0.4666699999999999 0.3380100000000000 O
atom_frac 0.9333299999999999 0.8666699999999999 0.3380100000000000 O
atom_frac 0.8666700000000001 0.3333300000000000 0.3619900000000000 Zn
atom_frac 0.6666700000000000 0.3333300000000000 0.3619900000000000 Zn
atom_frac 0.4666700000000000 0.9333300000000000 0.3619900000000000 Zn
atom_frac 0.2666700000000000 0.7333300000000000 0.3619900000000000 Zn
atom_frac 0.2666700000000000 0.5333300000000000 0.3619900000000000 Zn
atom_frac 0.0666700000000000 0.3333300000000000 0.3619900000000000 Zn
atom_frac 0.6666700000000000 0.9333300000000000 0.3619900000000000 Zn
atom_frac 0.4666700000000000 0.3333300000000000 0.3619900000000000 Zn
atom_frac 0.8666700000000001 0.5333300000000000 0.3619900000000000 Zn
atom_frac 0.0666700000000000 0.9333300000000000 0.3619900000000000 Zn
atom_frac 0.0666700000000000 0.7333300000000000 0.3619900000000000 Zn
atom_frac 0.6666700000000000 0.5333300000000000 0.3619900000000000 Zn
atom_frac 0.4666700000000000 0.7333300000000000 0.3619900000000000 Zn
atom_frac 0.6666700000000000 0.1333300000000000 0.3619900000000000 Zn
atom_frac 0.0666700000000000 0.1333300000000000 0.3619900000000000 Zn
atom_frac 0.8666700000000001 0.1333300000000000 0.3619900000000000 Zn
atom_frac 0.8666700000000001 0.7333300000000000 0.3619900000000000 Zn
atom_frac 0.4666700000000000 0.1333300000000000 0.3619900000000000 Zn
atom_frac 0.2666700000000000 0.1333300000000000 0.3619900000000000 Zn
atom_frac 0.0666700000000000 0.5333300000000000 0.3619900000000000 Zn
atom_frac 0.2666700000000000 0.9333300000000000 0.3619900000000000 Zn
atom_frac 0.6666700000000000 0.7333300000000000 0.3619900000000000 Zn
atom_frac 0.4666700000000000 0.5333300000000000 0.3619900000000000 Zn
atom_frac 0.2666700000000000 0.3333300000000000 0.3619900000000000 Zn
atom_frac 0.8666700000000001 0.9333300000000000 0.3619900000000000 Zn
atom_frac 0.2666700000000000 0.7333300000000000 0.4380100000000000 O
atom_frac 0.6666700000000000 0.9333300000000000 0.4380100000000000 O
atom_frac 0.6666700000000000 0.1333300000000000 0.4380100000000000 O
atom_frac 0.6666700000000000 0.5333300000000000 0.4380100000000000 O
atom_frac 0.0666700000000000 0.1333300000000000 0.4380100000000000 O
atom_frac 0.0666700000000000 0.3333300000000000 0.4380100000000000 O
atom_frac 0.8666700000000001 0.5333300000000000 0.4380100000000000 O
atom_frac 0.4666700000000000 0.5333300000000000 0.4380100000000000 O
atom_frac 0.2666700000000000 0.1333300000000000 0.4380100000000000 O
atom_frac 0.0666700000000000 0.7333300000000000 0.4380100000000000 O
atom_frac 0.0666700000000000 0.9333300000000000 0.4380100000000000 O
atom_frac 0.8666700000000001 0.1333300000000000 0.4380100000000000 O
atom_frac 0.4666700000000000 0.9333300000000000 0.4380100000000000 O
atom_frac 0.4666700000000000 0.3333300000000000 0.4380100000000000 O
atom_frac 0.6666700000000000 0.7333300000000000 0.4380100000000000 O
atom_frac 0.8666700000000001 0.7333300000000000 0.4380100000000000 O
atom_frac 0.6666700000000000 0.3333300000000000 0.4380100000000000 O
atom_frac 0.2666700000000000 0.3333300000000000 0.4380100000000000 O
atom_frac 0.0666700000000000 0.5333300000000000 0.4380100000000000 O
atom_frac 0.4666700000000000 0.1333300000000000 0.4380100000000000 O
atom_frac 0.2666700000000000 0.5333300000000000 0.4380100000000000 O
atom_frac 0.8666700000000001 0.3333300000000000 0.4380100000000000 O
atom_frac 0.4666700000000000 0.7333300000000000 0.4380100000000000 O
atom_frac 0.2666700000000000 0.9333300000000000 0.4380100000000000 O
atom_frac 0.8666700000000001 0.9333300000000000 0.4380100000000000 O
atom_frac 0.9333299999999999 0.4666699999999999 0.4619900000000000 Zn
atom_frac 0.1333300000000000 0.4666699999999999 0.4619900000000000 Zn
atom_frac 0.9333300000000000 0.0666700000000000 0.4619900000000000 Zn
atom_frac 0.5333300000000002 0.6666700000000000 0.4619900000000000 Zn
atom_frac 0.3333300000000000 0.2666700000000000 0.4619900000000000 Zn
atom_frac 0.1333300000000000 0.6666700000000000 0.4619900000000000 Zn
atom_frac 0.1333300000000000 0.2666700000000000 0.4619900000000000 Zn
atom_frac 0.5333300000000002 0.4666699999999999 0.4619900000000000 Zn
atom_frac 0.9333300000000000 0.6666700000000000 0.4619900000000000 Zn
atom_frac 0.7333300000000000 0.0666700000000000 0.4619900000000000 Zn
atom_frac 0.3333300000000000 0.0666700000000000 0.4619900000000000 Zn
atom_frac 0.9333300000000000 0.2666700000000000 0.4619900000000000 Zn
atom_frac 0.7333299999999999 0.4666699999999999 0.4619900000000000 Zn
atom_frac 0.7333300000000000 0.8666699999999999 0.4619900000000000 Zn
atom_frac 0.5333300000000002 0.2666700000000000 0.4619900000000000 Zn
atom_frac 0.3333300000000000 0.6666700000000000 0.4619900000000000 Zn
atom_frac 0.5333300000000002 0.0666700000000000 0.4619900000000000 Zn
atom_frac 0.9333299999999999 0.8666699999999999 0.4619900000000000 Zn
atom_frac 0.3767540973798200 0.3921001017209779 0.5420834461482140 Pd
atom_frac 0.3767540973798200 0.3921001017209779 0.5992853574547438 Pd
atom_frac 0.4562900490612181 0.3125641500395797 0.5992853574547438 Pd
atom_frac 0.4562900490612181 0.5511720050837743 0.5992853574547438 Pd
atom_frac 0.6153619524240144 0.3921001017209779 0.5420834461482140 Pd
atom_frac 0.6153619524240144 0.3921001017209779 0.5992853574547438 Pd
atom_frac 0.5358260007426162 0.4716360534023760 0.5420834461482140 Pd
atom_frac 0.6153619524240143 0.6307079567651724 0.5420834461482140 Pd
atom_frac 0.6153619524240143 0.6307079567651724 0.5992853574547438 Pd
atom_frac 0.6948979041054125 0.5511720050837743 0.5992853574547438 Pd
