#=======================================================
# FHI-aims file: C:\Users\eimea\PycharmProjects\pythonProject\teststructures\CO2_535_ZnO_000m1_cluster.in
# Created using the Atomic Simulation Environment (ASE)
# Fri Apr 12 10:18:28 2024
#=======================================================
lattice_vector 14.2126258953087206 0.0000000000000000 0.0000000000000009 
lattice_vector 7.1063129476543567 12.3084950798219044 0.0000000000000009 
lattice_vector 0.0000000000000000 0.0000000000000000 43.2277102370994086 
atom 7.8543458895127127 2.3753236118954590 16.0922434983148328 Zn
atom 10.8464776569461296 3.6709546729293456 16.0922434983148328 Zn
atom 13.8386094243795394 4.9665857339632300 16.0922434983148293 Zn
atom 13.4645929534503672 1.7275080813785149 16.0922434983148328 Zn
atom 2.2440988255750609 3.0231391424123997 16.0922434983148328 Zn
atom 5.2362305930084760 4.3187702034462854 16.0922434983148328 Zn
atom 8.2283623604418903 5.6144012644801702 16.0922434983148293 Zn
atom 11.2204941278753054 6.9100323255140550 16.0922434983148293 Zn
atom 14.2126258953087188 8.2056633865479380 16.0922434983148328 Zn
atom 17.2047576627421321 9.5012944475818237 16.0922434983148328 Zn
atom 16.8307411918129546 6.2622167949971121 16.0922434983148293 Zn
atom 5.6102470639376509 7.5578478560309952 16.0922434983148293 Zn
atom 8.6023788313710661 8.8534789170648800 16.0922434983148328 Zn
atom 11.5945105988044812 10.1491099780987657 16.0922434983148328 Zn
atom 14.5866423662378928 11.4447410391326514 16.0922434983148328 Zn
atom 10.4724611860169485 0.4318770203446347 16.0922434983148328 Zn
atom 20.1968894301755419 10.7969255086157077 16.0922434983148328 Zn
atom 8.9763953023002419 12.0925565696495934 16.0922434983148328 Zn
atom 4.8622141220792985 1.0796925508615731 16.0922434983148328 Zn
atom 9.7244282441585952 2.1593851017231449 18.7145284983148308 Zn
atom 12.7165600115920139 3.4550161627570284 18.7145284983148308 Zn
atom 15.7086917790254255 4.7506472237909163 18.7145284983148308 Zn
atom 1.1220494127875302 1.5115695712062009 18.7145284983148308 Zn
atom 4.1141811802209451 2.8072006322400860 18.7145284983148308 Zn
atom 7.1063129476543603 4.1028316932739708 18.7145284983148308 Zn
atom 10.0984447150877745 5.3984627543078565 18.7145284983148308 Zn
atom 13.0905764825211897 6.6940938153417422 18.7145284983148308 Zn
atom 16.0827082499546030 7.9897248763756252 18.7145284983148308 Zn
atom 19.0748400173880164 9.2853559374095127 18.7145284983148308 Zn
atom 4.4881976511501209 6.0462782848247976 18.7145284983148308 Zn
atom 7.4803294185835352 7.3419093458586833 18.7145284983148308 Zn
atom 10.4724611860169485 8.6375404068925672 18.7145284983148308 Zn
atom 13.4645929534503637 9.9331714679264529 18.7145284983148308 Zn
atom 16.4567247208837806 11.2288025289603386 18.7145284983148308 Zn
atom 12.3425435406628363 0.2159385101723209 18.7145284983148272 Zn
atom 7.8543458895127110 10.5809869984433949 18.7145284983148308 Zn
atom 10.8464776569461261 11.8766180594772806 18.7145284983148308 Zn
atom 6.7322964767251845 0.8637540406892619 18.7145284983148272 Zn
atom 7.8543458895127136 2.3753236118954595 21.3368134983148288 Zn
    constrain_relaxation .true.
atom 10.8464776569461314 3.6709546729293465 21.3368134983148288 Zn
    constrain_relaxation .true.
atom 13.8386094243795394 4.9665857339632309 21.3368134983148288 Zn
    constrain_relaxation .true.
atom 13.4645929534503672 1.7275080813785155 21.3368134983148288 Zn
    constrain_relaxation .true.
atom 2.2440988255750609 3.0231391424124001 21.3368134983148288 Zn
    constrain_relaxation .true.
atom 5.2362305930084760 4.3187702034462863 21.3368134983148288 Zn
    constrain_relaxation .true.
atom 8.2283623604418903 5.6144012644801711 21.3368134983148288 Zn
    constrain_relaxation .true.
atom 11.2204941278753054 6.9100323255140568 21.3368134983148288 Zn
    constrain_relaxation .true.
atom 14.2126258953087188 8.2056633865479398 21.3368134983148288 Zn
    constrain_relaxation .true.
atom 17.2047576627421321 9.5012944475818255 21.3368134983148359 Zn
    constrain_relaxation .true.
atom 16.8307411918129546 6.2622167949971139 21.3368134983148288 Zn
    constrain_relaxation .true.
atom 5.6102470639376518 7.5578478560309970 21.3368134983148288 Zn
    constrain_relaxation .true.
atom 8.6023788313710661 8.8534789170648818 21.3368134983148288 Zn
    constrain_relaxation .true.
atom 11.5945105988044812 10.1491099780987675 21.3368134983148359 Zn
    constrain_relaxation .true.
atom 14.5866423662378946 11.4447410391326514 21.3368134983148288 Zn
    constrain_relaxation .true.
atom 10.4724611860169485 0.4318770203446353 21.3368134983148288 Zn
    constrain_relaxation .true.
atom 20.1968894301755455 10.7969255086157094 21.3368134983148288 Zn
    constrain_relaxation .true.
atom 8.9763953023002436 12.0925565696495951 21.3368134983148288 Zn
    constrain_relaxation .true.
atom 4.8622141220792985 1.0796925508615738 21.3368134983148288 Zn
    constrain_relaxation .true.
atom 9.7244282441585952 2.1593851017231454 23.9590984983148374 Zn
    constrain_relaxation .true.
atom 12.7165600115920139 3.4550161627570288 23.9590984983148374 Zn
    constrain_relaxation .true.
atom 15.7086917790254255 4.7506472237909172 23.9590984983148374 Zn
    constrain_relaxation .true.
atom 1.1220494127875305 1.5115695712062016 23.9590984983148374 Zn
    constrain_relaxation .true.
atom 4.1141811802209451 2.8072006322400869 23.9590984983148374 Zn
    constrain_relaxation .true.
atom 7.1063129476543594 4.1028316932739717 23.9590984983148374 Zn
    constrain_relaxation .true.
atom 10.0984447150877745 5.3984627543078574 23.9590984983148374 Zn
    constrain_relaxation .true.
atom 13.0905764825211897 6.6940938153417422 23.9590984983148374 Zn
    constrain_relaxation .true.
atom 16.0827082499546030 7.9897248763756252 23.9590984983148374 Zn
    constrain_relaxation .true.
atom 19.0748400173880164 9.2853559374095127 23.9590984983148374 Zn
    constrain_relaxation .true.
atom 4.4881976511501209 6.0462782848247985 23.9590984983148374 Zn
    constrain_relaxation .true.
atom 7.4803294185835352 7.3419093458586833 23.9590984983148374 Zn
    constrain_relaxation .true.
atom 10.4724611860169485 8.6375404068925672 23.9590984983148374 Zn
    constrain_relaxation .true.
atom 13.4645929534503637 9.9331714679264529 23.9590984983148374 Zn
    constrain_relaxation .true.
atom 16.4567247208837806 11.2288025289603386 23.9590984983148374 Zn
    constrain_relaxation .true.
atom 12.3425435406628363 0.2159385101723215 23.9590984983148374 Zn
    constrain_relaxation .true.
atom 7.8543458895127110 10.5809869984433949 23.9590984983148374 Zn
    constrain_relaxation .true.
atom 10.8464776569461261 11.8766180594772806 23.9590984983148374 Zn
    constrain_relaxation .true.
atom 6.7322964767251836 0.8637540406892625 23.9590984983148374 Zn
    constrain_relaxation .true.
atom 7.8543458895127136 2.3753236118954604 26.5813834983148318 Zn
atom 10.8464776569461314 3.6709546729293465 26.5813834983148318 Zn
atom 13.8386094243795394 4.9665857339632309 26.5813834983148318 Zn
atom 13.4645929534503672 1.7275080813785162 26.5813834983148318 Zn
atom 2.2440988255750614 3.0231391424124010 26.5813834983148283 Zn
atom 5.2362305930084760 4.3187702034462863 26.5813834983148318 Zn
atom 8.2283623604418903 5.6144012644801711 26.5813834983148318 Zn
atom 11.2204941278753054 6.9100323255140568 26.5813834983148318 Zn
atom 14.2126258953087188 8.2056633865479398 26.5813834983148318 Zn
atom 17.2047576627421321 9.5012944475818255 26.5813834983148318 Zn
atom 16.8307411918129546 6.2622167949971139 26.5813834983148318 Zn
atom 5.6102470639376509 7.5578478560309970 26.5813834983148318 Zn
atom 8.6023788313710661 8.8534789170648818 26.5813834983148318 Zn
atom 11.5945105988044812 10.1491099780987675 26.5813834983148318 Zn
atom 14.5866423662378946 11.4447410391326514 26.5813834983148318 Zn
atom 10.4724611860169503 0.4318770203446360 26.5813834983148318 Zn
atom 20.1968894301755455 10.7969255086157094 26.5813834983148318 Zn
atom 8.9763953023002419 12.0925565696495951 26.5813834983148318 Zn
atom 4.8622141220792985 1.0796925508615745 26.5813834983148318 Zn
atom 1.1220494127875305 1.5115695712062023 29.2036684983148334 Zn
atom 7.1063129476543603 4.1028316932739717 29.2036684983148334 Zn
atom 10.0984447150877745 5.3984627543078583 29.2036684983148334 Zn
atom 13.0905764825211897 6.6940938153417422 29.2036684983148334 Zn
atom 16.0827082499546030 7.9897248763756252 29.2036684983148334 Zn
atom 4.4881976511501209 6.0462782848247993 29.2036684983148334 Zn
atom 7.4803294185835343 7.3419093458586833 29.2036684983148334 Zn
atom 10.4724611860169485 8.6375404068925672 29.2036684983148334 Zn
atom 13.4645929534503637 9.9331714679264529 29.2036684983148334 Zn
atom 16.4567247208837806 11.2288025289603386 29.2036684983148334 Zn
atom 12.3425435406628363 0.2159385101723221 29.2036684983148334 Zn
atom 7.8543458895127101 10.5809869984433949 29.2036684983148334 Zn
atom 10.8464776569461261 11.8766180594772806 29.2036684983148334 Zn
atom 6.7322964767251836 0.8637540406892632 29.2036684983148334 Zn
atom 7.8543458895127136 2.3753236118954590 18.0855996639148309 O
atom 10.8464776569461296 3.6709546729293456 18.0855996639148309 O
atom 13.8386094243795394 4.9665857339632300 18.0855996639148309 O
atom 13.4645929534503672 1.7275080813785151 18.0855996639148309 O
atom 2.2440988255750609 3.0231391424123997 18.0855996639148309 O
atom 5.2362305930084760 4.3187702034462854 18.0855996639148309 O
atom 8.2283623604418903 5.6144012644801702 18.0855996639148309 O
atom 11.2204941278753054 6.9100323255140550 18.0855996639148309 O
atom 14.2126258953087188 8.2056633865479380 18.0855996639148309 O
atom 17.2047576627421321 9.5012944475818237 18.0855996639148309 O
atom 16.8307411918129546 6.2622167949971121 18.0855996639148309 O
atom 5.6102470639376509 7.5578478560309952 18.0855996639148309 O
atom 8.6023788313710661 8.8534789170648800 18.0855996639148309 O
atom 11.5945105988044812 10.1491099780987657 18.0855996639148309 O
atom 14.5866423662378928 11.4447410391326514 18.0855996639148309 O
atom 10.4724611860169485 0.4318770203446349 18.0855996639148309 O
atom 20.1968894301755419 10.7969255086157077 18.0855996639148344 O
atom 8.9763953023002419 12.0925565696495934 18.0855996639148309 O
atom 4.8622141220792985 1.0796925508615733 18.0855996639148309 O
atom 1.1220494127875302 1.5115695712062005 15.4633146639148311 O
atom 7.1063129476543603 4.1028316932739708 15.4633146639148329 O
atom 10.0984447150877745 5.3984627543078565 15.4633146639148311 O
atom 13.0905764825211879 6.6940938153417404 15.4633146639148311 O
atom 16.0827082499546030 7.9897248763756235 15.4633146639148311 O
atom 4.4881976511501209 6.0462782848247976 15.4633146639148311 O
atom 7.4803294185835352 7.3419093458586824 15.4633146639148311 O
atom 10.4724611860169485 8.6375404068925654 15.4633146639148311 O
atom 13.4645929534503619 9.9331714679264511 15.4633146639148311 O
atom 16.4567247208837806 11.2288025289603368 15.4633146639148311 O
atom 12.3425435406628363 0.2159385101723205 15.4633146639148311 O
atom 7.8543458895127101 10.5809869984433931 15.4633146639148311 O
atom 10.8464776569461243 11.8766180594772788 15.4633146639148311 O
atom 6.7322964767251836 0.8637540406892615 15.4633146639148311 O
atom 7.8543458895127136 2.3753236118954599 23.3301696639148339 O
    constrain_relaxation .true.
atom 10.8464776569461314 3.6709546729293465 23.3301696639148339 O
    constrain_relaxation .true.
atom 13.8386094243795394 4.9665857339632309 23.3301696639148339 O
    constrain_relaxation .true.
atom 13.4645929534503672 1.7275080813785160 23.3301696639148375 O
    constrain_relaxation .true.
atom 2.2440988255750614 3.0231391424124006 23.3301696639148339 O
    constrain_relaxation .true.
atom 5.2362305930084760 4.3187702034462863 23.3301696639148339 O
    constrain_relaxation .true.
atom 8.2283623604418903 5.6144012644801711 23.3301696639148339 O
    constrain_relaxation .true.
atom 11.2204941278753054 6.9100323255140568 23.3301696639148339 O
    constrain_relaxation .true.
atom 14.2126258953087188 8.2056633865479398 23.3301696639148339 O
    constrain_relaxation .true.
atom 17.2047576627421321 9.5012944475818255 23.3301696639148339 O
    constrain_relaxation .true.
atom 16.8307411918129546 6.2622167949971139 23.3301696639148339 O
    constrain_relaxation .true.
atom 5.6102470639376518 7.5578478560309970 23.3301696639148339 O
    constrain_relaxation .true.
atom 8.6023788313710661 8.8534789170648818 23.3301696639148339 O
    constrain_relaxation .true.
atom 11.5945105988044812 10.1491099780987675 23.3301696639148339 O
    constrain_relaxation .true.
atom 14.5866423662378946 11.4447410391326514 23.3301696639148339 O
    constrain_relaxation .true.
atom 10.4724611860169485 0.4318770203446355 23.3301696639148375 O
    constrain_relaxation .true.
atom 20.1968894301755455 10.7969255086157094 23.3301696639148339 O
    constrain_relaxation .true.
atom 8.9763953023002436 12.0925565696495951 23.3301696639148339 O
    constrain_relaxation .true.
atom 4.8622141220792976 1.0796925508615740 23.3301696639148375 O
    constrain_relaxation .true.
atom 9.7244282441585952 2.1593851017231449 20.7078846639148288 O
    constrain_relaxation .true.
atom 12.7165600115920139 3.4550161627570284 20.7078846639148288 O
    constrain_relaxation .true.
atom 15.7086917790254255 4.7506472237909163 20.7078846639148288 O
    constrain_relaxation .true.
atom 1.1220494127875305 1.5115695712062012 20.7078846639148288 O
    constrain_relaxation .true.
atom 4.1141811802209451 2.8072006322400864 20.7078846639148288 O
    constrain_relaxation .true.
atom 7.1063129476543603 4.1028316932739708 20.7078846639148288 O
    constrain_relaxation .true.
atom 10.0984447150877745 5.3984627543078565 20.7078846639148288 O
    constrain_relaxation .true.
atom 13.0905764825211897 6.6940938153417422 20.7078846639148288 O
    constrain_relaxation .true.
atom 16.0827082499546030 7.9897248763756252 20.7078846639148288 O
    constrain_relaxation .true.
atom 19.0748400173880164 9.2853559374095127 20.7078846639148324 O
    constrain_relaxation .true.
atom 4.4881976511501200 6.0462782848247976 20.7078846639148288 O
    constrain_relaxation .true.
atom 7.4803294185835352 7.3419093458586833 20.7078846639148288 O
    constrain_relaxation .true.
atom 10.4724611860169485 8.6375404068925672 20.7078846639148288 O
    constrain_relaxation .true.
atom 13.4645929534503637 9.9331714679264529 20.7078846639148288 O
    constrain_relaxation .true.
atom 16.4567247208837806 11.2288025289603386 20.7078846639148360 O
    constrain_relaxation .true.
atom 12.3425435406628363 0.2159385101723211 20.7078846639148288 O
    constrain_relaxation .true.
atom 7.8543458895127110 10.5809869984433949 20.7078846639148288 O
    constrain_relaxation .true.
atom 10.8464776569461261 11.8766180594772806 20.7078846639148360 O
    constrain_relaxation .true.
atom 6.7322964767251845 0.8637540406892622 20.7078846639148288 O
    constrain_relaxation .true.
atom 7.8543458895127136 2.3753236118954604 28.5747396639148334 O
atom 10.8464776569461314 3.6709546729293474 28.5747396639148334 O
atom 13.8386094243795412 4.9665857339632309 28.5747396639148334 O
atom 13.4645929534503672 1.7275080813785166 28.5747396639148334 O
atom 2.2440988255750614 3.0231391424124010 28.5747396639148334 O
atom 5.2362305930084760 4.3187702034462871 28.5747396639148334 O
atom 8.2283623604418903 5.6144012644801711 28.5747396639148334 O
atom 11.2204941278753054 6.9100323255140568 28.5747396639148334 O
atom 14.2126258953087188 8.2056633865479398 28.5747396639148334 O
atom 17.2047576627421321 9.5012944475818255 28.5747396639148334 O
atom 16.8307411918129546 6.2622167949971139 28.5747396639148334 O
atom 5.6102470639376509 7.5578478560309970 28.5747396639148334 O
atom 8.6023788313710661 8.8534789170648818 28.5747396639148334 O
atom 11.5945105988044812 10.1491099780987675 28.5747396639148334 O
atom 14.5866423662378946 11.4447410391326514 28.5747396639148334 O
atom 10.4724611860169503 0.4318770203446362 28.5747396639148334 O
atom 20.1968894301755455 10.7969255086157094 28.5747396639148334 O
atom 8.9763953023002419 12.0925565696495951 28.5747396639148334 O
atom 4.8622141220792985 1.0796925508615747 28.5747396639148334 O
atom 9.7244282441585970 2.1593851017231458 25.9524546639148319 O
atom 12.7165600115920139 3.4550161627570288 25.9524546639148319 O
atom 15.7086917790254255 4.7506472237909172 25.9524546639148319 O
atom 1.1220494127875305 1.5115695712062021 25.9524546639148319 O
atom 4.1141811802209451 2.8072006322400869 25.9524546639148319 O
atom 7.1063129476543594 4.1028316932739717 25.9524546639148319 O
atom 10.0984447150877745 5.3984627543078574 25.9524546639148319 O
atom 13.0905764825211897 6.6940938153417422 25.9524546639148319 O
atom 16.0827082499546030 7.9897248763756252 25.9524546639148319 O
atom 19.0748400173880164 9.2853559374095127 25.9524546639148319 O
atom 4.4881976511501209 6.0462782848247985 25.9524546639148319 O
atom 7.4803294185835343 7.3419093458586833 25.9524546639148319 O
atom 10.4724611860169485 8.6375404068925672 25.9524546639148319 O
atom 13.4645929534503637 9.9331714679264529 25.9524546639148319 O
atom 16.4567247208837806 11.2288025289603386 25.9524546639148319 O
atom 12.3425435406628363 0.2159385101723217 25.9524546639148319 O
atom 7.8543458895127110 10.5809869984433949 25.9524546639148319 O
atom 10.8464776569461261 11.8766180594772806 25.9524546639148319 O
atom 6.7322964767251836 0.8637540406892629 25.9524546639148319 O
atom 10.0984440459913500 5.3984540905306062 13.7454367892149776 Pd
atom 11.4730593106214567 3.0175508614545739 13.7454381546571476 Pd
atom 8.7238291102202776 3.0175511117193978 13.7454365930054525 Pd
atom 10.0984457044439218 6.9857519331135949 11.4716955447271367 Pd
atom 8.7238306493570565 4.6048489174774749 11.4716955782584673 Pd
atom 11.4730613260953724 4.6048485214134978 11.4716938810068818 Pd
atom 12.8476742916532842 5.3984540254051341 13.7454376753078140 Pd
atom 11.4730591102202819 7.7793571534119899 13.7454365930054472 Pd
atom 7.3492142916532863 5.3984540254051403 13.7454376753078176 Pd
atom 8.7238293106214595 7.7793569031471579 13.7454381546571529 Pd
atom 15.5049659000691680 4.2528685325436175 14.2389208976497237 C
atom 15.5049659000691680 4.2528685325436175 15.4175788976497241 O
atom 15.5049659000691680 4.2528685325436175 13.0602628976497233 O

