C H O                                   
   1.0000000000000000     
     9.1286371058052538   -0.0163125947414884    0.0522381088948087
    -1.1265077824517238    9.7002128741249649    0.2162317297506228
     0.0638418200410503    0.2318417333365506   10.3073383844794559
   C    H    O 
    24    56    28
Selective dynamics
Direct
  0.0245096408532465  0.9952233314628092  0.0251795727119241   T   T   T
  0.9487463611985009  0.8871667503532101  0.9387252008361437   T   T   T
 -0.0013883016102577  0.9171283059998092  0.7980821713083818   T   T   T
  0.0028504319141888  0.0706743125415650  0.7557770107350124   T   T   T
  0.0766010134513947  0.1696375639383850  0.8531903838616692   T   T   T
  0.0529520617854523  0.3220728372622716  0.8320725063967087   T   T   T
  0.5124465498593311  0.3974734472935249  0.3180244456777865   T   T   T
  0.4492336219286583  0.2880044696084482  0.2276984231424574   T   T   T
  0.4881169453169316  0.3265151836024431  0.0864821491745666   T   T   T
  0.4630520332364042  0.4772694629966205  0.0525489526861196   T   T   T
  0.5474558231482185  0.5688401554465284  0.1501969712718598   T   T   T
  0.5357169608150295  0.7225005724855346  0.1418190636711022   T   T   T
  0.0179883686508110  0.0651794769080203  0.5227009621671252   T   T   T
  0.0501576360445414  0.1924155738284508  0.4304973128856538   T   T   T
  0.9905846543302882  0.1590042269841392  0.2972984176382845   T   T   T
  0.0320871469593675  0.0194930871855627  0.2575345991503144   T   T   T
  0.9978349693536652  0.9041237542418541  0.3621375548012014   T   T   T
  0.0453680577566993  0.7661637226990734  0.3241007248151351   T   T   T
  0.4385279939002695  0.4839907360034387  0.8188624763942703   T   T   T
  0.4771377482381983  0.5989048311830825  0.7143159655732169   T   T   T
  0.4722787675239967  0.5584319446625587  0.5732156811205862   T   T   T
  0.5061254269488105  0.4105860024511025  0.5515366015374272   T   T   T
  0.4361457734565518  0.3077506649209742  0.6568117203657153   T   T   T
  0.4771323674790759  0.1600689128949995  0.6461320990068371   T   T   T
  0.1417317970626516  0.9822475963409084  0.0378138214246921   T   T   T
  0.8290731934421360  0.8907248626762204  0.9472985222545078   T   T   T
  0.1121001573301442  0.8900712225438699  0.7875782738068960   T   T   T
  0.8899018738566662  0.0961884558889262  0.7391579589539743   T   T   T
  0.1956490275983209  0.1578220362976418  0.8562072923108219   T   T   T
  0.1144144263322374  0.3786917877238217  0.9089484585590549   T   T   T
  0.9344927610719304  0.3283174675042213  0.8467004794355339   T   T   T
  0.6332424111305658  0.3981100811196824  0.3266137542647793   T   T   T
  0.3278246942109928  0.2767498477741241  0.2383704433840878   T   T   T
  0.6066206349245606  0.3187364009188088  0.0690368561823725   T   T   T
  0.3447250786401173  0.4904904153004145  0.0583268546929207   T   T   T
  0.6646645071951434  0.5501909007116170  0.1497306919980220   T   T   T
  0.5947270718568718  0.7642188586660236  0.2266170712234282   T   T   T
  0.4182594334001991  0.7339676109777007  0.1551196408181351   T   T   T
 -0.0392133748793897  0.7372592669602913  0.0765401373713751   T   T   T
  0.8035599862678420  0.8428635224367510  0.7315155087779474   T   T   T
  0.0877159100145469  0.4788804817798178  0.6970005433893163   T   T   T
  0.4703611118306737  0.1303047106972630  0.3514342369150544   T   T   T
  0.4292348293475272  0.2480463515475582  0.9200693603038942   T   T   T
  0.6143050276921641  0.8939976674312489  0.0510617835346094   T   T   T
  0.8976187970422405  0.0420974715075340  0.5406588059042049   T   T   T
  0.1709148544942777  0.2204904715395512  0.4230408634313328   T   T   T
  0.8685311919668711  0.1528750745917768  0.3032014996696432   T   T   T
  0.1506897097854187  0.0282523993763851  0.2332515017082341   T   T   T
  0.8773067892488148  0.8878135031642573  0.3832501328682176   T   T   T
  0.0466916261262822  0.6998221532717087  0.4132327287356000   T   T   T
  0.1584795923143291  0.7816243742548142  0.2830482857056287   T   T   T
  0.3191011988243487  0.4672082211902097  0.8407983475773112   T   T   T
  0.5932991479463241  0.6372254417529845  0.7351945589553035   T   T   T
  0.3609039996415127  0.5656977604050392  0.5360484011731370   T   T   T
  0.6268541825990379  0.4066871877403497  0.5472387738930841   T   T   T
  0.3152495440413467  0.3058036431751345  0.6530501196040462   T   T   T
  0.4675534958084189  0.1075807162551252  0.7432991308434772   T   T   T
  0.5926624846771943  0.1610857080114604  0.6147156100886910   T   T   T
  0.0265479522825537  0.3253028858118300  0.5685918871605563   T   T   T
  0.0337243560712663  0.2305657055038235  0.1154560149288138   T   T   T
  0.9182264661847875  0.6032361393125453  0.2583377642072219   T   T   T
  0.3512087562790061  0.7185803876450986  0.8196693170343303   T   T   T
  0.6613695822720370  0.6776554175684012  0.5404462176207698   T   T   T
  0.2850798363310260  0.0723308523040223  0.5869269360811659   T   T   T
  0.0168531130330957  0.6994528863640765  0.6724317326853188   T   T   T
  0.1881786239100765  0.6802309468791465  0.6642291170301992   T   T   T
  0.9064411960250878  0.4125217573105828  0.3751025163941803   T   T   T
  0.9350837723776980  0.3957893463522587  0.2317849853434254   T   T   T
  0.3149510163933290  0.8146935231456611  0.0034064291770908   T   T   T
  0.1631192037346607  0.7377889988437947  0.9573167861033640   T   T   T
  0.5462695822837400  0.8502918781566957  0.7261635931896979   T   T   T
  0.6137696645343460  0.8391945004321341  0.8615994178247662   T   T   T
  0.7757303278469657  0.0387870190394854  0.1220946011722644   T   T   T
  0.6219927359290099  0.0897287062965010  0.1629581106457502   T   T   T
  0.4090493898519440  0.9337749772173384  0.4551271583762136   T   T   T
  0.4763127705699020  0.8024014414737468  0.4121463351063638   T   T   T
  0.3804814312202268  0.0463302485582896  0.0852394974051629   T   T   T
  0.3818957001215530 -0.0624504200714141  0.2038078639660176   T   T   T
  0.7024706977627965  0.1627466670658457  0.9371221240782501   T   T   T
  0.6529243101197547  0.2796573756357781  0.8421871594130171   T   T   T
 -0.0164964220316113  0.7536689668817546 -0.0198715379851536   T   T   T
  0.9100440576769265  0.8319110488693887  0.7126894491078722   T   T   T
  0.0904722826319832  0.0970620407545177  0.6385032246414427   T   T   T
  0.0100073722486110  0.1336800040025750 -0.0215265817506588   T   T   T
  0.1035307311514006  0.3776929407867285  0.7066592759420972   T   T   T
  0.5053460621481650  0.1606503421669258  0.2633754991553754   T   T   T
  0.4000664622457103  0.2274372591641621  0.0121515295076459   T   T   T
  0.5209109514804258  0.5228655755659976  0.9261107824036395   T   T   T
  0.4783997840420082  0.5289807061096682  0.2740343335388234   T   T   T
  0.5962780368216567  0.7954602952028739  0.0271160610002999   T   T   T
 -0.0199233619469896  0.3013762118581744  0.4831302753242919   T   T   T
  0.0472036992420753  0.2665960716327142  0.2039042491418708   T   T   T
  0.9490917849039093  0.9790560356903492  0.1448619939963836   T   T   T
  0.0756826723084401  0.9476820348175707  0.4754853006965210   T   T   T
  0.9430155884721079  0.7049871359719772  0.2332718155308969   T   T   T
  0.3866092465312491  0.7081555101663313  0.7256462940932268   T   T   T
  0.5673495239890439  0.6604258138088024  0.4965714689522389   T   T   T
  0.4390402594293366  0.3608874923561601  0.4361652290666159   T   T   T
  0.4863410629020886  0.3538771373033135  0.7813079546467886   T   T   T
  0.3882295529333242  0.0821585462026362  0.5552994806771188   T   T   T
  0.0881666607421332  0.6355712529564294  0.6471716049635523   T   T   T
  0.8741426397158980  0.4469182540234038  0.2889407087564700   T   T   T
  0.2727493709461495  0.7396357397695715  0.9484840831372179   T   T   T
  0.6363801276613333  0.8819927883297167  0.7732166126148364   T   T   T
  0.6778429541591270  0.0561945636584527  0.0898511396585194   T   T   T
  0.4309769082788317  0.8829625325476217  0.3782679982757677   T   T   T
  0.3425181106861859 -0.0482270621031543  0.1160360543670113   T   T   T
  0.7265447959962744  0.2156187997610953  0.8544404587909460   T   T   T

  0.00000000E+00  0.00000000E+00  0.00000000E+00
  0.00000000E+00  0.00000000E+00  0.00000000E+00
  0.00000000E+00  0.00000000E+00  0.00000000E+00
  0.00000000E+00  0.00000000E+00  0.00000000E+00
  0.00000000E+00  0.00000000E+00  0.00000000E+00
  0.00000000E+00  0.00000000E+00  0.00000000E+00
  0.00000000E+00  0.00000000E+00  0.00000000E+00
  0.00000000E+00  0.00000000E+00  0.00000000E+00
  0.00000000E+00  0.00000000E+00  0.00000000E+00
  0.00000000E+00  0.00000000E+00  0.00000000E+00
  0.00000000E+00  0.00000000E+00  0.00000000E+00
  0.00000000E+00  0.00000000E+00  0.00000000E+00
  0.00000000E+00  0.00000000E+00  0.00000000E+00
  0.00000000E+00  0.00000000E+00  0.00000000E+00
  0.00000000E+00  0.00000000E+00  0.00000000E+00
  0.00000000E+00  0.00000000E+00  0.00000000E+00
  0.00000000E+00  0.00000000E+00  0.00000000E+00
  0.00000000E+00  0.00000000E+00  0.00000000E+00
  0.00000000E+00  0.00000000E+00  0.00000000E+00
  0.00000000E+00  0.00000000E+00  0.00000000E+00
  0.00000000E+00  0.00000000E+00  0.00000000E+00
  0.00000000E+00  0.00000000E+00  0.00000000E+00
  0.00000000E+00  0.00000000E+00  0.00000000E+00
  0.00000000E+00  0.00000000E+00  0.00000000E+00
  0.00000000E+00  0.00000000E+00  0.00000000E+00
  0.00000000E+00  0.00000000E+00  0.00000000E+00
  0.00000000E+00  0.00000000E+00  0.00000000E+00
  0.00000000E+00  0.00000000E+00  0.00000000E+00
  0.00000000E+00  0.00000000E+00  0.00000000E+00
  0.00000000E+00  0.00000000E+00  0.00000000E+00
  0.00000000E+00  0.00000000E+00  0.00000000E+00
  0.00000000E+00  0.00000000E+00  0.00000000E+00
  0.00000000E+00  0.00000000E+00  0.00000000E+00
  0.00000000E+00  0.00000000E+00  0.00000000E+00
  0.00000000E+00  0.00000000E+00  0.00000000E+00
  0.00000000E+00  0.00000000E+00  0.00000000E+00
  0.00000000E+00  0.00000000E+00  0.00000000E+00
  0.00000000E+00  0.00000000E+00  0.00000000E+00
  0.00000000E+00  0.00000000E+00  0.00000000E+00
  0.00000000E+00  0.00000000E+00  0.00000000E+00
  0.00000000E+00  0.00000000E+00  0.00000000E+00
  0.00000000E+00  0.00000000E+00  0.00000000E+00
  0.00000000E+00  0.00000000E+00  0.00000000E+00
  0.00000000E+00  0.00000000E+00  0.00000000E+00
  0.00000000E+00  0.00000000E+00  0.00000000E+00
  0.00000000E+00  0.00000000E+00  0.00000000E+00
  0.00000000E+00  0.00000000E+00  0.00000000E+00
  0.00000000E+00  0.00000000E+00  0.00000000E+00
  0.00000000E+00  0.00000000E+00  0.00000000E+00
  0.00000000E+00  0.00000000E+00  0.00000000E+00
  0.00000000E+00  0.00000000E+00  0.00000000E+00
  0.00000000E+00  0.00000000E+00  0.00000000E+00
  0.00000000E+00  0.00000000E+00  0.00000000E+00
  0.00000000E+00  0.00000000E+00  0.00000000E+00
  0.00000000E+00  0.00000000E+00  0.00000000E+00
  0.00000000E+00  0.00000000E+00  0.00000000E+00
  0.00000000E+00  0.00000000E+00  0.00000000E+00
  0.00000000E+00  0.00000000E+00  0.00000000E+00
  0.00000000E+00  0.00000000E+00  0.00000000E+00
  0.00000000E+00  0.00000000E+00  0.00000000E+00
  0.00000000E+00  0.00000000E+00  0.00000000E+00
  0.00000000E+00  0.00000000E+00  0.00000000E+00
  0.00000000E+00  0.00000000E+00  0.00000000E+00
  0.00000000E+00  0.00000000E+00  0.00000000E+00
  0.00000000E+00  0.00000000E+00  0.00000000E+00
  0.00000000E+00  0.00000000E+00  0.00000000E+00
  0.00000000E+00  0.00000000E+00  0.00000000E+00
  0.00000000E+00  0.00000000E+00  0.00000000E+00
  0.00000000E+00  0.00000000E+00  0.00000000E+00
  0.00000000E+00  0.00000000E+00  0.00000000E+00
  0.00000000E+00  0.00000000E+00  0.00000000E+00
  0.00000000E+00  0.00000000E+00  0.00000000E+00
  0.00000000E+00  0.00000000E+00  0.00000000E+00
  0.00000000E+00  0.00000000E+00  0.00000000E+00
  0.00000000E+00  0.00000000E+00  0.00000000E+00
  0.00000000E+00  0.00000000E+00  0.00000000E+00
  0.00000000E+00  0.00000000E+00  0.00000000E+00
  0.00000000E+00  0.00000000E+00  0.00000000E+00
  0.00000000E+00  0.00000000E+00  0.00000000E+00
  0.00000000E+00  0.00000000E+00  0.00000000E+00
  0.00000000E+00  0.00000000E+00  0.00000000E+00
  0.00000000E+00  0.00000000E+00  0.00000000E+00
  0.00000000E+00  0.00000000E+00  0.00000000E+00
  0.00000000E+00  0.00000000E+00  0.00000000E+00
  0.00000000E+00  0.00000000E+00  0.00000000E+00
  0.00000000E+00  0.00000000E+00  0.00000000E+00
  0.00000000E+00  0.00000000E+00  0.00000000E+00
  0.00000000E+00  0.00000000E+00  0.00000000E+00
  0.00000000E+00  0.00000000E+00  0.00000000E+00
  0.00000000E+00  0.00000000E+00  0.00000000E+00
  0.00000000E+00  0.00000000E+00  0.00000000E+00
  0.00000000E+00  0.00000000E+00  0.00000000E+00
  0.00000000E+00  0.00000000E+00  0.00000000E+00
  0.00000000E+00  0.00000000E+00  0.00000000E+00
  0.00000000E+00  0.00000000E+00  0.00000000E+00
  0.00000000E+00  0.00000000E+00  0.00000000E+00
  0.00000000E+00  0.00000000E+00  0.00000000E+00
  0.00000000E+00  0.00000000E+00  0.00000000E+00
  0.00000000E+00  0.00000000E+00  0.00000000E+00
  0.00000000E+00  0.00000000E+00  0.00000000E+00
  0.00000000E+00  0.00000000E+00  0.00000000E+00
  0.00000000E+00  0.00000000E+00  0.00000000E+00
  0.00000000E+00  0.00000000E+00  0.00000000E+00
  0.00000000E+00  0.00000000E+00  0.00000000E+00
  0.00000000E+00  0.00000000E+00  0.00000000E+00
  0.00000000E+00  0.00000000E+00  0.00000000E+00
  0.00000000E+00  0.00000000E+00  0.00000000E+00
  0.00000000E+00  0.00000000E+00  0.00000000E+00
