#=======================================================
# FHI-aims file: /nfshome/store03/users/c.c1809139/DJW_EBMC/Pd_nps/ZnO_oxy_face/geometry.in
# Created using the Atomic Simulation Environment (ASE)
# Mon Nov 27 10:47:21 2023
#=======================================================
lattice_vector 16.3029000000000011 0.0000000000000000 0.0000000000000000 
lattice_vector -8.1514499806691560 14.1187255665179947 0.0000000000000000 
lattice_vector 0.0000000000000000 0.0000000000000000 36.2229000000000028 
atom -6.5210784758345781 13.1774301281619870 14.5026861435000018 O
atom 1.6303715241654206 4.7061947949475940 14.5026861435000018 O
atom 0.0000815241654206 7.5299399060190568 14.5026861435000018 O
atom -3.2604984758345781 13.1774301281619870 14.5026861435000018 O
atom 6.5212415241654202 1.8824496838761264 14.5026861435000018 O
atom 4.8909515241654198 4.7061947949475940 14.5026861435000018 O
atom 3.2606615241654198 7.5299399060190568 14.5026861435000018 O
atom 1.6303715241654204 10.3536850170905232 14.5026861435000018 O
atom 0.0000815241654220 13.1774301281619870 14.5026861435000018 O
atom 9.7818215241654176 1.8824496838761264 14.5026861435000018 O
atom 6.5212415241654229 7.5299399060190568 14.5026861435000018 O
atom 4.8909515241654216 10.3536850170905232 14.5026861435000018 O
atom 3.2606615241654220 13.1774301281619870 14.5026861435000018 O
atom 13.0424015241654185 1.8824496838761264 14.5026861435000018 O
atom 11.4121115241654199 4.7061947949475940 14.5026861435000018 O
atom 9.7818215241654247 7.5299399060190568 14.5026861435000018 O
atom 8.1515315241654207 10.3536850170905232 14.5026861435000018 O
atom 6.5212415241654238 13.1774301281619870 14.5026861435000018 O
atom 4.8907884951654221 6.5887856604989370 15.1315112855000038 Zn
atom 3.2604984951654208 3.7650405494274728 15.1315112855000038 Zn
atom 3.2604984951654226 9.4125307715704025 15.1315112855000038 Zn
atom -3.2606615048345793 9.4125307715704025 15.1315112855000038 Zn
atom 1.6302084951654223 12.2362758826418698 15.1315112855000038 Zn
atom 1.6302084951654212 6.5887856604989370 15.1315112855000038 Zn
atom 11.4119484951654293 0.9412954383560068 15.1315112855000038 Zn
atom 1.6302084951654194 0.9412954383560068 15.1315112855000038 Zn
atom 9.7816584951654200 3.7650405494274728 15.1315112855000038 Zn
atom -0.0000815048345793 9.4125307715704025 15.1315112855000038 Zn
atom 8.1513684951654195 6.5887856604989370 15.1315112855000038 Zn
atom -4.8909515048345780 12.2362758826418698 15.1315112855000038 Zn
atom 6.5210784951654217 9.4125307715704025 15.1315112855000038 Zn
atom -1.6303715048345786 12.2362758826418698 15.1315112855000038 Zn
atom 4.8907884951654292 12.2362758826418698 15.1315112855000038 Zn
atom -1.6303715048345797 6.5887856604989370 15.1315112855000038 Zn
atom 14.6725284951654231 0.9412954383560068 15.1315112855000038 Zn
atom 8.1513684951654231 0.9412954383560068 15.1315112855000038 Zn
atom 13.0422384951654191 3.7650405494274728 15.1315112855000038 Zn
atom 4.8907884951654195 0.9412954383560068 15.1315112855000038 Zn
atom 11.4119484951654186 6.5887856604989370 15.1315112855000038 Zn
atom 6.5210784951654244 3.7650405494274728 15.1315112855000038 Zn
atom 9.7816584951654200 9.4125307715704025 15.1315112855000038 Zn
atom -0.0000815048345798 3.7650405494274728 15.1315112855000038 Zn
atom 8.1513684951654195 12.2362758826418698 15.1315112855000038 Zn
atom 9.7816584951654200 3.7650405494274728 17.1249761434999996 O
atom 1.6302084951654212 6.5887856604989370 17.1249761434999996 O
atom 6.5210784951654244 3.7650405494274728 17.1249761434999996 O
atom 8.1513684951654195 6.5887856604989370 17.1249761434999996 O
atom -3.2606615048345793 9.4125307715704025 17.1249761434999996 O
atom 4.8907884951654195 0.9412954383560068 17.1249761434999996 O
atom 6.5210784951654217 9.4125307715704025 17.1249761434999996 O
atom 4.8907884951654221 6.5887856604989370 17.1249761434999996 O
atom -0.0000815048345793 9.4125307715704025 17.1249761434999996 O
atom 4.8907884951654292 12.2362758826418698 17.1249761434999996 O
atom -1.6303715048345797 6.5887856604989370 17.1249761434999996 O
atom 3.2604984951654226 9.4125307715704025 17.1249761434999996 O
atom 14.6725284951654231 0.9412954383560068 17.1249761434999996 O
atom 1.6302084951654194 0.9412954383560068 17.1249761434999996 O
atom -1.6303715048345786 12.2362758826418698 17.1249761434999996 O
atom 13.0422384951654191 3.7650405494274728 17.1249761434999996 O
atom 1.6302084951654223 12.2362758826418698 17.1249761434999996 O
atom 3.2604984951654208 3.7650405494274728 17.1249761434999996 O
atom 11.4119484951654186 6.5887856604989370 17.1249761434999996 O
atom -4.8909515048345780 12.2362758826418698 17.1249761434999996 O
atom 11.4119484951654293 0.9412954383560068 17.1249761434999996 O
atom 9.7816584951654200 9.4125307715704025 17.1249761434999996 O
atom 8.1513684951654231 0.9412954383560068 17.1249761434999996 O
atom -0.0000815048345798 3.7650405494274728 17.1249761434999996 O
atom 8.1513684951654195 12.2362758826418698 17.1249761434999996 O
atom 4.8909515241654216 10.3536850170905232 17.7538012854999998 Zn
atom 6.5212415241654202 1.8824496838761264 17.7538012854999998 Zn
atom -6.5210784758345781 13.1774301281619870 17.7538012854999998 Zn
atom 0.0000815241654220 13.1774301281619870 17.7538012854999998 Zn
atom 3.2606615241654220 13.1774301281619870 17.7538012854999998 Zn
atom -4.8907884758345794 10.3536850170905232 17.7538012854999998 Zn
atom -1.6302084758345796 10.3536850170905232 17.7538012854999998 Zn
atom 4.8909515241654198 4.7061947949475940 17.7538012854999998 Zn
atom 13.0424015241654185 1.8824496838761264 17.7538012854999998 Zn
atom 9.7818215241654176 1.8824496838761264 17.7538012854999998 Zn
atom 1.6303715241654206 4.7061947949475940 17.7538012854999998 Zn
atom -1.6302084758345810 4.7061947949475940 17.7538012854999998 Zn
atom 11.4121115241654199 4.7061947949475940 17.7538012854999998 Zn
atom 0.0000815241654194 1.8824496838761264 17.7538012854999998 Zn
atom 8.1515315241654189 4.7061947949475940 17.7538012854999998 Zn
atom 3.2606615241654198 7.5299399060190568 17.7538012854999998 Zn
atom 9.7818215241654247 7.5299399060190568 17.7538012854999998 Zn
atom -3.2604984758345781 13.1774301281619870 17.7538012854999998 Zn
atom 3.2606615241654193 1.8824496838761264 17.7538012854999998 Zn
atom 6.5212415241654229 7.5299399060190568 17.7538012854999998 Zn
atom 8.1515315241654207 10.3536850170905232 17.7538012854999998 Zn
atom 0.0000815241654206 7.5299399060190568 17.7538012854999998 Zn
atom 1.6303715241654204 10.3536850170905232 17.7538012854999998 Zn
atom -3.2604984758345799 7.5299399060190568 17.7538012854999998 Zn
atom 6.5212415241654238 13.1774301281619870 17.7538012854999998 Zn
atom 3.2606615241654198 7.5299399060190568 19.7472661434999992 O
    constrain_relaxation .true.
atom 1.6303715241654206 4.7061947949475940 19.7472661434999992 O
    constrain_relaxation .true.
atom -4.8907884758345794 10.3536850170905232 19.7472661434999992 O
    constrain_relaxation .true.
atom 6.5212415241654202 1.8824496838761264 19.7472661434999992 O
    constrain_relaxation .true.
atom 13.0424015241654185 1.8824496838761264 19.7472661434999992 O
    constrain_relaxation .true.
atom 8.1515315241654189 4.7061947949475940 19.7472661434999992 O
    constrain_relaxation .true.
atom -1.6302084758345796 10.3536850170905232 19.7472661434999992 O
    constrain_relaxation .true.
atom 1.6303715241654204 10.3536850170905232 19.7472661434999992 O
    constrain_relaxation .true.
atom 3.2606615241654193 1.8824496838761264 19.7472661434999992 O
    constrain_relaxation .true.
atom 11.4121115241654199 4.7061947949475940 19.7472661434999992 O
    constrain_relaxation .true.
atom -6.5210784758345781 13.1774301281619870 19.7472661434999992 O
    constrain_relaxation .true.
atom 6.5212415241654229 7.5299399060190568 19.7472661434999992 O
    constrain_relaxation .true.
atom -1.6302084758345810 4.7061947949475940 19.7472661434999992 O
    constrain_relaxation .true.
atom 4.8909515241654198 4.7061947949475940 19.7472661434999992 O
    constrain_relaxation .true.
atom 9.7818215241654247 7.5299399060190568 19.7472661434999992 O
    constrain_relaxation .true.
atom 0.0000815241654220 13.1774301281619870 19.7472661434999992 O
    constrain_relaxation .true.
atom 0.0000815241654206 7.5299399060190568 19.7472661434999992 O
    constrain_relaxation .true.
atom 4.8909515241654216 10.3536850170905232 19.7472661434999992 O
    constrain_relaxation .true.
atom -3.2604984758345781 13.1774301281619870 19.7472661434999992 O
    constrain_relaxation .true.
atom 8.1515315241654207 10.3536850170905232 19.7472661434999992 O
    constrain_relaxation .true.
atom -3.2604984758345799 7.5299399060190568 19.7472661434999992 O
    constrain_relaxation .true.
atom 0.0000815241654194 1.8824496838761264 19.7472661434999992 O
    constrain_relaxation .true.
atom 9.7818215241654176 1.8824496838761264 19.7472661434999992 O
    constrain_relaxation .true.
atom 3.2606615241654220 13.1774301281619870 19.7472661434999992 O
    constrain_relaxation .true.
atom 6.5212415241654238 13.1774301281619870 19.7472661434999992 O
    constrain_relaxation .true.
atom 14.6725284951654231 0.9412954383560068 20.3760912855000029 Zn
    constrain_relaxation .true.
atom 1.6302084951654194 0.9412954383560068 20.3760912855000029 Zn
    constrain_relaxation .true.
atom 1.6302084951654223 12.2362758826418698 20.3760912855000029 Zn
    constrain_relaxation .true.
atom 8.1513684951654195 6.5887856604989370 20.3760912855000029 Zn
    constrain_relaxation .true.
atom -0.0000815048345793 9.4125307715704025 20.3760912855000029 Zn
    constrain_relaxation .true.
atom -3.2606615048345793 9.4125307715704025 20.3760912855000029 Zn
    constrain_relaxation .true.
atom 13.0422384951654191 3.7650405494274728 20.3760912855000029 Zn
    constrain_relaxation .true.
atom 4.8907884951654221 6.5887856604989370 20.3760912855000029 Zn
    constrain_relaxation .true.
atom 8.1513684951654231 0.9412954383560068 20.3760912855000029 Zn
    constrain_relaxation .true.
atom -1.6303715048345797 6.5887856604989370 20.3760912855000029 Zn
    constrain_relaxation .true.
atom 6.5210784951654217 9.4125307715704025 20.3760912855000029 Zn
    constrain_relaxation .true.
atom 11.4119484951654293 0.9412954383560068 20.3760912855000029 Zn
    constrain_relaxation .true.
atom 11.4119484951654186 6.5887856604989370 20.3760912855000029 Zn
    constrain_relaxation .true.
atom 1.6302084951654212 6.5887856604989370 20.3760912855000029 Zn
    constrain_relaxation .true.
atom -4.8909515048345780 12.2362758826418698 20.3760912855000029 Zn
    constrain_relaxation .true.
atom 3.2604984951654208 3.7650405494274728 20.3760912855000029 Zn
    constrain_relaxation .true.
atom 3.2604984951654226 9.4125307715704025 20.3760912855000029 Zn
    constrain_relaxation .true.
atom 4.8907884951654292 12.2362758826418698 20.3760912855000029 Zn
    constrain_relaxation .true.
atom 9.7816584951654200 9.4125307715704025 20.3760912855000029 Zn
    constrain_relaxation .true.
atom -1.6303715048345786 12.2362758826418698 20.3760912855000029 Zn
    constrain_relaxation .true.
atom 9.7816584951654200 3.7650405494274728 20.3760912855000029 Zn
    constrain_relaxation .true.
atom 6.5210784951654244 3.7650405494274728 20.3760912855000029 Zn
    constrain_relaxation .true.
atom 4.8907884951654195 0.9412954383560068 20.3760912855000029 Zn
    constrain_relaxation .true.
atom -0.0000815048345798 3.7650405494274728 20.3760912855000029 Zn
    constrain_relaxation .true.
atom 8.1513684951654195 12.2362758826418698 20.3760912855000029 Zn
    constrain_relaxation .true.
atom 11.4119484951654293 0.9412954383560068 22.3695561434999988 O
atom 6.5210784951654244 3.7650405494274728 22.3695561434999988 O
atom 3.2604984951654226 9.4125307715704025 22.3695561434999988 O
atom 13.0422384951654191 3.7650405494274728 22.3695561434999988 O
atom 6.5210784951654217 9.4125307715704025 22.3695561434999988 O
atom -0.0000815048345793 9.4125307715704025 22.3695561434999988 O
atom 4.8907884951654195 0.9412954383560068 22.3695561434999988 O
atom 1.6302084951654212 6.5887856604989370 22.3695561434999988 O
atom 3.2604984951654208 3.7650405494274728 22.3695561434999988 O
atom 9.7816584951654200 3.7650405494274728 22.3695561434999988 O
atom 11.4119484951654186 6.5887856604989370 22.3695561434999988 O
atom 8.1513684951654231 0.9412954383560068 22.3695561434999988 O
atom 4.8907884951654292 12.2362758826418698 22.3695561434999988 O
atom -3.2606615048345793 9.4125307715704025 22.3695561434999988 O
atom 1.6302084951654223 12.2362758826418698 22.3695561434999988 O
atom 4.8907884951654221 6.5887856604989370 22.3695561434999988 O
atom 1.6302084951654194 0.9412954383560068 22.3695561434999988 O
atom 9.7816584951654200 9.4125307715704025 22.3695561434999988 O
atom -0.0000815048345798 3.7650405494274728 22.3695561434999988 O
atom 8.1513684951654195 6.5887856604989370 22.3695561434999988 O
atom 14.6725284951654231 0.9412954383560068 22.3695561434999988 O
atom -1.6303715048345786 12.2362758826418698 22.3695561434999988 O
atom -4.8909515048345780 12.2362758826418698 22.3695561434999988 O
atom -1.6303715048345797 6.5887856604989370 22.3695561434999988 O
atom 8.1513684951654195 12.2362758826418698 22.3695561434999988 O
atom 11.4121115241654199 4.7061947949475940 22.9983812855000025 Zn
atom 8.1515315241654189 4.7061947949475940 22.9983812855000025 Zn
atom 0.0000815241654220 13.1774301281619870 22.9983812855000025 Zn
atom -1.6302084758345796 10.3536850170905232 22.9983812855000025 Zn
atom 0.0000815241654206 7.5299399060190568 22.9983812855000025 Zn
atom -1.6302084758345810 4.7061947949475940 22.9983812855000025 Zn
atom 3.2606615241654220 13.1774301281619870 22.9983812855000025 Zn
atom 4.8909515241654198 4.7061947949475940 22.9983812855000025 Zn
atom 9.7818215241654247 7.5299399060190568 22.9983812855000025 Zn
atom -6.5210784758345781 13.1774301281619870 22.9983812855000025 Zn
atom -4.8907884758345794 10.3536850170905232 22.9983812855000025 Zn
atom 6.5212415241654229 7.5299399060190568 22.9983812855000025 Zn
atom 1.6303715241654204 10.3536850170905232 22.9983812855000025 Zn
atom 9.7818215241654176 1.8824496838761264 22.9983812855000025 Zn
atom 0.0000815241654194 1.8824496838761264 22.9983812855000025 Zn
atom 13.0424015241654185 1.8824496838761264 22.9983812855000025 Zn
atom 8.1515315241654207 10.3536850170905232 22.9983812855000025 Zn
atom 6.5212415241654202 1.8824496838761264 22.9983812855000025 Zn
atom 3.2606615241654193 1.8824496838761264 22.9983812855000025 Zn
atom -3.2604984758345799 7.5299399060190568 22.9983812855000025 Zn
atom -3.2604984758345781 13.1774301281619870 22.9983812855000025 Zn
atom 4.8909515241654216 10.3536850170905232 22.9983812855000025 Zn
atom 3.2606615241654198 7.5299399060190568 22.9983812855000025 Zn
atom 1.6303715241654206 4.7061947949475940 22.9983812855000025 Zn
atom 6.5212415241654238 13.1774301281619870 22.9983812855000025 Zn
atom -1.6302084758345796 10.3536850170905232 24.9918461434999983 O
atom 3.2606615241654220 13.1774301281619870 24.9918461434999983 O
atom 9.7818215241654176 1.8824496838761264 24.9918461434999983 O
atom 6.5212415241654229 7.5299399060190568 24.9918461434999983 O
atom 0.0000815241654194 1.8824496838761264 24.9918461434999983 O
atom -1.6302084758345810 4.7061947949475940 24.9918461434999983 O
atom 9.7818215241654247 7.5299399060190568 24.9918461434999983 O
atom 3.2606615241654198 7.5299399060190568 24.9918461434999983 O
atom 3.2606615241654193 1.8824496838761264 24.9918461434999983 O
atom -4.8907884758345794 10.3536850170905232 24.9918461434999983 O
atom -6.5210784758345781 13.1774301281619870 24.9918461434999983 O
atom 13.0424015241654185 1.8824496838761264 24.9918461434999983 O
atom 0.0000815241654220 13.1774301281619870 24.9918461434999983 O
atom 4.8909515241654198 4.7061947949475940 24.9918461434999983 O
atom 4.8909515241654216 10.3536850170905232 24.9918461434999983 O
atom 8.1515315241654207 10.3536850170905232 24.9918461434999983 O
atom 8.1515315241654189 4.7061947949475940 24.9918461434999983 O
atom 1.6303715241654206 4.7061947949475940 24.9918461434999983 O
atom -3.2604984758345799 7.5299399060190568 24.9918461434999983 O
atom 6.5212415241654202 1.8824496838761264 24.9918461434999983 O
atom 0.0000815241654206 7.5299399060190568 24.9918461434999983 O
atom 11.4121115241654199 4.7061947949475940 24.9918461434999983 O
atom 1.6303715241654204 10.3536850170905232 24.9918461434999983 O
atom -3.2604984758345781 13.1774301281619870 24.9918461434999983 O
atom 6.5212415241654238 13.1774301281619870 24.9918461434999983 O
atom 11.4119484951654186 6.5887856604989370 25.6206712855000021 Zn
atom -1.6303715048345797 6.5887856604989370 25.6206712855000021 Zn
atom 14.6725284951654231 0.9412954383560068 25.6206712855000021 Zn
atom 3.2604984951654226 9.4125307715704025 25.6206712855000021 Zn
atom 3.2604984951654208 3.7650405494274728 25.6206712855000021 Zn
atom -3.2606615048345793 9.4125307715704025 25.6206712855000021 Zn
atom -0.0000815048345798 3.7650405494274728 25.6206712855000021 Zn
atom 4.8907884951654221 6.5887856604989370 25.6206712855000021 Zn
atom 9.7816584951654200 9.4125307715704025 25.6206712855000021 Zn
atom 11.4119484951654293 0.9412954383560068 25.6206712855000021 Zn
atom 4.8907884951654195 0.9412954383560068 25.6206712855000021 Zn
atom 13.0422384951654191 3.7650405494274728 25.6206712855000021 Zn
atom 8.1513684951654195 6.5887856604989370 25.6206712855000021 Zn
atom 4.8907884951654292 12.2362758826418698 25.6206712855000021 Zn
atom 6.5210784951654244 3.7650405494274728 25.6206712855000021 Zn
atom -0.0000815048345793 9.4125307715704025 25.6206712855000021 Zn
atom 8.1513684951654231 0.9412954383560068 25.6206712855000021 Zn
atom 8.1513684951654195 12.2362758826418698 25.6206712855000021 Zn
atom 2.9460000096654180 5.5359537096851756 11.0022287145000011 Pd
atom 2.9460000096654180 5.5359537096851756 12.5022287145000011 Pd
atom 4.8910000096654187 4.4130074361113536 12.5022287145000011 Pd
atom 2.9460000096654224 7.7818462568328206 12.5022287145000011 Pd
atom 6.8360000096654199 5.5359537096851756 11.0022287145000011 Pd
atom 6.8360000096654199 5.5359537096851756 12.5022287145000011 Pd
atom 4.8910000096654205 6.6588999832589968 11.0022287145000011 Pd
atom 4.8910000096654205 8.9047925304066418 11.0022287145000011 Pd
atom 4.8910000096654205 8.9047925304066418 12.5022287145000011 Pd
atom 6.8360000096654208 7.7818462568328206 12.5022287145000011 Pd
