#=======================================================
# FHI-aims file: /nfshome/store03/users/c.c1809139/DJW_EBMC/Pd_nps/combined_fcc.in
# Created using the Atomic Simulation Environment (ASE)
# Fri Nov 17 16:13:34 2023
#=======================================================
lattice_vector 16.3029000000000011 0.0000000000000000 0.0000000000000000 
lattice_vector -8.1514499999999970 14.1187255553573259 0.0000000000000000 
lattice_vector 0.0000000000000000 0.0000000000000000 26.2228999999999992 
atom -6.5210784854999968 13.1774301225816526 0.9967324290000000 O
atom 1.6303715145000011 4.7061947893672578 0.9967324290000000 O
atom 0.0000815145000020 7.5299399004387224 0.9967324290000000 O
atom -3.2604984854999968 13.1774301225816526 0.9967324290000000 O
atom 6.5212415145000007 1.8824496782957922 0.9967324290000000 O
atom 4.8909515145000011 4.7061947893672578 0.9967324290000000 O
atom 3.2606615145000020 7.5299399004387224 0.9967324290000000 O
atom 1.6303715145000022 10.3536850115101888 0.9967324290000000 O
atom 0.0000815145000031 13.1774301225816526 0.9967324290000000 O
atom 9.7818215145000007 1.8824496782957922 0.9967324290000000 O
atom 6.5212415145000033 7.5299399004387224 0.9967324290000000 O
atom 4.8909515145000029 10.3536850115101888 0.9967324290000000 O
atom 3.2606615145000042 13.1774301225816526 0.9967324290000000 O
atom 13.0424015145000016 1.8824496782957922 0.9967324290000000 O
atom 11.4121115145000029 4.7061947893672578 0.9967324290000000 O
atom 9.7818215145000043 7.5299399004387224 0.9967324290000000 O
atom 8.1515315145000038 10.3536850115101888 0.9967324290000000 O
atom 6.5212415145000051 13.1774301225816526 0.9967324290000000 O
atom 4.8907884855000026 6.5887856549186026 1.6255575710000001 Zn
atom 3.2604984855000017 3.7650405438471384 1.6255575710000001 Zn
atom 3.2604984855000030 9.4125307659900681 1.6255575710000001 Zn
atom -3.2606615144999975 9.4125307659900681 1.6255575710000001 Zn
atom 1.6302084855000030 12.2362758770615336 1.6255575710000001 Zn
atom 1.6302084855000025 6.5887856549186026 1.6255575710000001 Zn
atom 11.4119484855000017 0.9412954327756728 1.6255575710000001 Zn
atom 1.6302084855000005 0.9412954327756728 1.6255575710000001 Zn
atom 9.7816584855000031 3.7650405438471384 1.6255575710000001 Zn
atom -0.0000815144999970 9.4125307659900681 1.6255575710000001 Zn
atom 8.1513684855000026 6.5887856549186026 1.6255575710000001 Zn
atom -4.8909515144999975 12.2362758770615336 1.6255575710000001 Zn
atom 6.5210784855000039 9.4125307659900681 1.6255575710000001 Zn
atom -1.6303715144999971 12.2362758770615336 1.6255575710000001 Zn
atom 4.8907884855000043 12.2362758770615336 1.6255575710000001 Zn
atom -1.6303715144999980 6.5887856549186026 1.6255575710000001 Zn
atom 14.6725284855000009 0.9412954327756728 1.6255575710000001 Zn
atom 8.1513684855000008 0.9412954327756728 1.6255575710000001 Zn
atom 13.0422384855000022 3.7650405438471384 1.6255575710000001 Zn
atom 4.8907884855000008 0.9412954327756728 1.6255575710000001 Zn
atom 11.4119484855000017 6.5887856549186026 1.6255575710000001 Zn
atom 6.5210784855000012 3.7650405438471384 1.6255575710000001 Zn
atom 9.7816584855000031 9.4125307659900681 1.6255575710000001 Zn
atom -0.0000815144999990 3.7650405438471384 1.6255575710000001 Zn
atom 8.1513684855000026 12.2362758770615336 1.6255575710000001 Zn
atom 9.7816584855000031 3.7650405438471384 3.6190224289999997 O
atom 1.6302084855000025 6.5887856549186026 3.6190224289999997 O
atom 6.5210784855000012 3.7650405438471384 3.6190224289999997 O
atom 8.1513684855000026 6.5887856549186026 3.6190224289999997 O
atom -3.2606615144999975 9.4125307659900681 3.6190224289999997 O
atom 4.8907884855000008 0.9412954327756728 3.6190224289999997 O
atom 6.5210784855000039 9.4125307659900681 3.6190224289999997 O
atom 4.8907884855000026 6.5887856549186026 3.6190224289999997 O
atom -0.0000815144999970 9.4125307659900681 3.6190224289999997 O
atom 4.8907884855000043 12.2362758770615336 3.6190224289999997 O
atom -1.6303715144999980 6.5887856549186026 3.6190224289999997 O
atom 3.2604984855000030 9.4125307659900681 3.6190224289999997 O
atom 14.6725284855000009 0.9412954327756728 3.6190224289999997 O
atom 1.6302084855000005 0.9412954327756728 3.6190224289999997 O
atom -1.6303715144999971 12.2362758770615336 3.6190224289999997 O
atom 13.0422384855000022 3.7650405438471384 3.6190224289999997 O
atom 1.6302084855000030 12.2362758770615336 3.6190224289999997 O
atom 3.2604984855000017 3.7650405438471384 3.6190224289999997 O
atom 11.4119484855000017 6.5887856549186026 3.6190224289999997 O
atom -4.8909515144999975 12.2362758770615336 3.6190224289999997 O
atom 11.4119484855000017 0.9412954327756728 3.6190224289999997 O
atom 9.7816584855000031 9.4125307659900681 3.6190224289999997 O
atom 8.1513684855000008 0.9412954327756728 3.6190224289999997 O
atom -0.0000815144999990 3.7650405438471384 3.6190224289999997 O
atom 8.1513684855000026 12.2362758770615336 3.6190224289999997 O
atom 4.8909515145000029 10.3536850115101888 4.2478475709999994 Zn
atom 6.5212415145000007 1.8824496782957922 4.2478475709999994 Zn
atom -6.5210784854999968 13.1774301225816526 4.2478475709999994 Zn
atom 0.0000815145000031 13.1774301225816526 4.2478475709999994 Zn
atom 3.2606615145000042 13.1774301225816526 4.2478475709999994 Zn
atom -4.8907884854999981 10.3536850115101888 4.2478475709999994 Zn
atom -1.6302084854999979 10.3536850115101888 4.2478475709999994 Zn
atom 4.8909515145000011 4.7061947893672578 4.2478475709999994 Zn
atom 13.0424015145000016 1.8824496782957922 4.2478475709999994 Zn
atom 9.7818215145000007 1.8824496782957922 4.2478475709999994 Zn
atom 1.6303715145000011 4.7061947893672578 4.2478475709999994 Zn
atom -1.6302084854999992 4.7061947893672578 4.2478475709999994 Zn
atom 11.4121115145000029 4.7061947893672578 4.2478475709999994 Zn
atom 0.0000815145000003 1.8824496782957922 4.2478475709999994 Zn
atom 8.1515315145000020 4.7061947893672578 4.2478475709999994 Zn
atom 3.2606615145000020 7.5299399004387224 4.2478475709999994 Zn
atom 9.7818215145000043 7.5299399004387224 4.2478475709999994 Zn
atom -3.2604984854999968 13.1774301225816526 4.2478475709999994 Zn
atom 3.2606615145000006 1.8824496782957922 4.2478475709999994 Zn
atom 6.5212415145000033 7.5299399004387224 4.2478475709999994 Zn
atom 8.1515315145000038 10.3536850115101888 4.2478475709999994 Zn
atom 0.0000815145000020 7.5299399004387224 4.2478475709999994 Zn
atom 1.6303715145000022 10.3536850115101888 4.2478475709999994 Zn
atom -3.2604984854999981 7.5299399004387224 4.2478475709999994 Zn
atom 6.5212415145000051 13.1774301225816526 4.2478475709999994 Zn
atom 3.2606615145000020 7.5299399004387224 6.2413124289999997 O
atom 1.6303715145000011 4.7061947893672578 6.2413124289999997 O
atom -4.8907884854999981 10.3536850115101888 6.2413124289999997 O
atom 6.5212415145000007 1.8824496782957922 6.2413124289999997 O
atom 13.0424015145000016 1.8824496782957922 6.2413124289999997 O
atom 8.1515315145000020 4.7061947893672578 6.2413124289999997 O
atom -1.6302084854999979 10.3536850115101888 6.2413124289999997 O
atom 1.6303715145000022 10.3536850115101888 6.2413124289999997 O
atom 3.2606615145000006 1.8824496782957922 6.2413124289999997 O
atom 11.4121115145000029 4.7061947893672578 6.2413124289999997 O
atom -6.5210784854999968 13.1774301225816526 6.2413124289999997 O
atom 6.5212415145000033 7.5299399004387224 6.2413124289999997 O
atom -1.6302084854999992 4.7061947893672578 6.2413124289999997 O
atom 4.8909515145000011 4.7061947893672578 6.2413124289999997 O
atom 9.7818215145000043 7.5299399004387224 6.2413124289999997 O
atom 0.0000815145000031 13.1774301225816526 6.2413124289999997 O
atom 0.0000815145000020 7.5299399004387224 6.2413124289999997 O
atom 4.8909515145000029 10.3536850115101888 6.2413124289999997 O
atom -3.2604984854999968 13.1774301225816526 6.2413124289999997 O
atom 8.1515315145000038 10.3536850115101888 6.2413124289999997 O
atom -3.2604984854999981 7.5299399004387224 6.2413124289999997 O
atom 0.0000815145000003 1.8824496782957922 6.2413124289999997 O
atom 9.7818215145000007 1.8824496782957922 6.2413124289999997 O
atom 3.2606615145000042 13.1774301225816526 6.2413124289999997 O
atom 6.5212415145000051 13.1774301225816526 6.2413124289999997 O
atom 14.6725284855000009 0.9412954327756728 6.8701375709999999 Zn
atom 1.6302084855000005 0.9412954327756728 6.8701375709999999 Zn
atom 1.6302084855000030 12.2362758770615336 6.8701375709999999 Zn
atom 8.1513684855000026 6.5887856549186026 6.8701375709999999 Zn
atom -0.0000815144999970 9.4125307659900681 6.8701375709999999 Zn
atom -3.2606615144999975 9.4125307659900681 6.8701375709999999 Zn
atom 13.0422384855000022 3.7650405438471384 6.8701375709999999 Zn
atom 4.8907884855000026 6.5887856549186026 6.8701375709999999 Zn
atom 8.1513684855000008 0.9412954327756728 6.8701375709999999 Zn
atom -1.6303715144999980 6.5887856549186026 6.8701375709999999 Zn
atom 6.5210784855000039 9.4125307659900681 6.8701375709999999 Zn
atom 11.4119484855000017 0.9412954327756728 6.8701375709999999 Zn
atom 11.4119484855000017 6.5887856549186026 6.8701375709999999 Zn
atom 1.6302084855000025 6.5887856549186026 6.8701375709999999 Zn
atom -4.8909515144999975 12.2362758770615336 6.8701375709999999 Zn
atom 3.2604984855000017 3.7650405438471384 6.8701375709999999 Zn
atom 3.2604984855000030 9.4125307659900681 6.8701375709999999 Zn
atom 4.8907884855000043 12.2362758770615336 6.8701375709999999 Zn
atom 9.7816584855000031 9.4125307659900681 6.8701375709999999 Zn
atom -1.6303715144999971 12.2362758770615336 6.8701375709999999 Zn
atom 9.7816584855000031 3.7650405438471384 6.8701375709999999 Zn
atom 6.5210784855000012 3.7650405438471384 6.8701375709999999 Zn
atom 4.8907884855000008 0.9412954327756728 6.8701375709999999 Zn
atom -0.0000815144999990 3.7650405438471384 6.8701375709999999 Zn
atom 8.1513684855000026 12.2362758770615336 6.8701375709999999 Zn
atom 11.4119484855000017 0.9412954327756728 8.8636024289999984 O
atom 6.5210784855000012 3.7650405438471384 8.8636024289999984 O
atom 3.2604984855000030 9.4125307659900681 8.8636024289999984 O
atom 13.0422384855000022 3.7650405438471384 8.8636024289999984 O
atom 6.5210784855000039 9.4125307659900681 8.8636024289999984 O
atom -0.0000815144999970 9.4125307659900681 8.8636024289999984 O
atom 4.8907884855000008 0.9412954327756728 8.8636024289999984 O
atom 1.6302084855000025 6.5887856549186026 8.8636024289999984 O
atom 3.2604984855000017 3.7650405438471384 8.8636024289999984 O
atom 9.7816584855000031 3.7650405438471384 8.8636024289999984 O
atom 11.4119484855000017 6.5887856549186026 8.8636024289999984 O
atom 8.1513684855000008 0.9412954327756728 8.8636024289999984 O
atom 4.8907884855000043 12.2362758770615336 8.8636024289999984 O
atom -3.2606615144999975 9.4125307659900681 8.8636024289999984 O
atom 1.6302084855000030 12.2362758770615336 8.8636024289999984 O
atom 4.8907884855000026 6.5887856549186026 8.8636024289999984 O
atom 1.6302084855000005 0.9412954327756728 8.8636024289999984 O
atom 9.7816584855000031 9.4125307659900681 8.8636024289999984 O
atom -0.0000815144999990 3.7650405438471384 8.8636024289999984 O
atom 8.1513684855000026 6.5887856549186026 8.8636024289999984 O
atom 14.6725284855000009 0.9412954327756728 8.8636024289999984 O
atom -1.6303715144999971 12.2362758770615336 8.8636024289999984 O
atom -4.8909515144999975 12.2362758770615336 8.8636024289999984 O
atom -1.6303715144999980 6.5887856549186026 8.8636024289999984 O
atom 8.1513684855000026 12.2362758770615336 8.8636024289999984 O
atom 11.4121115145000029 4.7061947893672578 9.4924275709999986 Zn
atom 8.1515315145000020 4.7061947893672578 9.4924275709999986 Zn
atom 0.0000815145000031 13.1774301225816526 9.4924275709999986 Zn
atom -1.6302084854999979 10.3536850115101888 9.4924275709999986 Zn
atom 0.0000815145000020 7.5299399004387224 9.4924275709999986 Zn
atom -1.6302084854999992 4.7061947893672578 9.4924275709999986 Zn
atom 3.2606615145000042 13.1774301225816526 9.4924275709999986 Zn
atom 4.8909515145000011 4.7061947893672578 9.4924275709999986 Zn
atom 9.7818215145000043 7.5299399004387224 9.4924275709999986 Zn
atom -6.5210784854999968 13.1774301225816526 9.4924275709999986 Zn
atom -4.8907884854999981 10.3536850115101888 9.4924275709999986 Zn
atom 6.5212415145000033 7.5299399004387224 9.4924275709999986 Zn
atom 1.6303715145000022 10.3536850115101888 9.4924275709999986 Zn
atom 9.7818215145000007 1.8824496782957922 9.4924275709999986 Zn
atom 0.0000815145000003 1.8824496782957922 9.4924275709999986 Zn
atom 13.0424015145000016 1.8824496782957922 9.4924275709999986 Zn
atom 8.1515315145000038 10.3536850115101888 9.4924275709999986 Zn
atom 6.5212415145000007 1.8824496782957922 9.4924275709999986 Zn
atom 3.2606615145000006 1.8824496782957922 9.4924275709999986 Zn
atom -3.2604984854999981 7.5299399004387224 9.4924275709999986 Zn
atom -3.2604984854999968 13.1774301225816526 9.4924275709999986 Zn
atom 4.8909515145000029 10.3536850115101888 9.4924275709999986 Zn
atom 3.2606615145000020 7.5299399004387224 9.4924275709999986 Zn
atom 1.6303715145000011 4.7061947893672578 9.4924275709999986 Zn
atom 6.5212415145000051 13.1774301225816526 9.4924275709999986 Zn
atom -1.6302084854999979 10.3536850115101888 11.4858924289999997 O
atom 3.2606615145000042 13.1774301225816526 11.4858924289999997 O
atom 9.7818215145000007 1.8824496782957922 11.4858924289999997 O
atom 6.5212415145000033 7.5299399004387224 11.4858924289999997 O
atom 0.0000815145000003 1.8824496782957922 11.4858924289999997 O
atom -1.6302084854999992 4.7061947893672578 11.4858924289999997 O
atom 9.7818215145000043 7.5299399004387224 11.4858924289999997 O
atom 3.2606615145000020 7.5299399004387224 11.4858924289999997 O
atom 3.2606615145000006 1.8824496782957922 11.4858924289999997 O
atom -4.8907884854999981 10.3536850115101888 11.4858924289999997 O
atom -6.5210784854999968 13.1774301225816526 11.4858924289999997 O
atom 13.0424015145000016 1.8824496782957922 11.4858924289999997 O
atom 0.0000815145000031 13.1774301225816526 11.4858924289999997 O
atom 4.8909515145000011 4.7061947893672578 11.4858924289999997 O
atom 4.8909515145000029 10.3536850115101888 11.4858924289999997 O
atom 8.1515315145000038 10.3536850115101888 11.4858924289999997 O
atom 8.1515315145000020 4.7061947893672578 11.4858924289999997 O
atom 1.6303715145000011 4.7061947893672578 11.4858924289999997 O
atom -3.2604984854999981 7.5299399004387224 11.4858924289999997 O
atom 6.5212415145000007 1.8824496782957922 11.4858924289999997 O
atom 0.0000815145000020 7.5299399004387224 11.4858924289999997 O
atom 11.4121115145000029 4.7061947893672578 11.4858924289999997 O
atom 1.6303715145000022 10.3536850115101888 11.4858924289999997 O
atom -3.2604984854999968 13.1774301225816526 11.4858924289999997 O
atom 6.5212415145000051 13.1774301225816526 11.4858924289999997 O
atom 11.4119484855000017 6.5887856549186026 12.1147175709999999 Zn
atom -1.6303715144999980 6.5887856549186026 12.1147175709999999 Zn
atom 14.6725284855000009 0.9412954327756728 12.1147175709999999 Zn
atom 3.2604984855000030 9.4125307659900681 12.1147175709999999 Zn
atom 3.2604984855000017 3.7650405438471384 12.1147175709999999 Zn
atom -3.2606615144999975 9.4125307659900681 12.1147175709999999 Zn
atom -0.0000815144999990 3.7650405438471384 12.1147175709999999 Zn
atom 4.8907884855000026 6.5887856549186026 12.1147175709999999 Zn
atom 9.7816584855000031 9.4125307659900681 12.1147175709999999 Zn
atom 11.4119484855000017 0.9412954327756728 12.1147175709999999 Zn
atom 4.8907884855000008 0.9412954327756728 12.1147175709999999 Zn
atom 13.0422384855000022 3.7650405438471384 12.1147175709999999 Zn
atom 8.1513684855000026 6.5887856549186026 12.1147175709999999 Zn
atom 4.8907884855000043 12.2362758770615336 12.1147175709999999 Zn
atom 6.5210784855000012 3.7650405438471384 12.1147175709999999 Zn
atom -0.0000815144999970 9.4125307659900681 12.1147175709999999 Zn
atom 8.1513684855000008 0.9412954327756728 12.1147175709999999 Zn
atom 8.1513684855000026 12.2362758770615336 12.1147175709999999 Zn
atom 2.9459999999999997 5.5359537264261780 14.2149999999999999 Pd
atom 2.9459999999999997 5.5359537264261780 15.7149999999999999 Pd
atom 4.8910000000000000 4.4130074528523560 15.7149999999999999 Pd
atom 2.9459999999999997 7.7818462735738221 15.7149999999999999 Pd
atom 6.8360000000000003 5.5359537264261780 14.2149999999999999 Pd
atom 6.8360000000000003 5.5359537264261780 15.7149999999999999 Pd
atom 4.8910000000000000 6.6589000000000000 14.2149999999999999 Pd
atom 4.8910000000000000 8.9047925471476432 14.2149999999999999 Pd
atom 4.8910000000000000 8.9047925471476432 15.7149999999999999 Pd
atom 6.8360000000000003 7.7818462735738221 15.7149999999999999 Pd
