#=======================================================
# FHI-aims file: ./geometry.in
# Created using the Atomic Simulation Environment (ASE)
# Fri Oct  6 12:14:32 2023
#=======================================================
lattice_vector 16.3029000000000011 0.0000000000000000 0.0000000000000000 
lattice_vector -8.1514499999999970 14.1187255553573259 0.0000000000000000 
lattice_vector 0.0000000000000000 0.0000000000000000 26.2228999999999992 
atom_frac 0.0666700000000000 0.9333300000000000 0.0380100000000000 O
atom_frac 0.2666700000000000 0.3333300000000000 0.0380100000000000 O
atom_frac 0.2666700000000000 0.5333300000000000 0.0380100000000000 O
atom_frac 0.2666700000000000 0.9333300000000000 0.0380100000000000 O
atom_frac 0.4666700000000000 0.1333300000000000 0.0380100000000000 O
atom_frac 0.4666700000000000 0.3333300000000000 0.0380100000000000 O
atom_frac 0.4666700000000000 0.5333300000000000 0.0380100000000000 O
atom_frac 0.4666700000000000 0.7333300000000000 0.0380100000000000 O
atom_frac 0.4666700000000000 0.9333300000000000 0.0380100000000000 O
atom_frac 0.6666700000000000 0.1333300000000000 0.0380100000000000 O
atom_frac 0.6666700000000000 0.5333300000000000 0.0380100000000000 O
atom_frac 0.6666700000000000 0.7333300000000000 0.0380100000000000 O
atom_frac 0.6666700000000000 0.9333300000000000 0.0380100000000000 O
atom_frac 0.8666700000000001 0.1333300000000000 0.0380100000000000 O
atom_frac 0.8666700000000001 0.3333300000000000 0.0380100000000000 O
atom_frac 0.8666700000000001 0.5333300000000000 0.0380100000000000 O
atom_frac 0.8666700000000001 0.7333300000000000 0.0380100000000000 O
atom_frac 0.8666700000000001 0.9333300000000000 0.0380100000000000 O
atom_frac 0.5333300000000001 0.4666699999999999 0.0619900000000000 Zn
atom_frac 0.3333300000000000 0.2666700000000000 0.0619900000000000 Zn
atom_frac 0.5333300000000001 0.6666700000000000 0.0619900000000000 Zn
atom_frac 0.1333300000000000 0.6666700000000000 0.0619900000000000 Zn
atom_frac 0.5333300000000000 0.8666699999999999 0.0619900000000000 Zn
atom_frac 0.3333300000000000 0.4666699999999999 0.0619900000000000 Zn
atom_frac 0.7333300000000000 0.0666700000000000 0.0619900000000000 Zn
atom_frac 0.1333300000000000 0.0666700000000000 0.0619900000000000 Zn
atom_frac 0.7333300000000000 0.2666700000000000 0.0619900000000000 Zn
atom_frac 0.3333300000000000 0.6666700000000000 0.0619900000000000 Zn
atom_frac 0.7333299999999999 0.4666699999999999 0.0619900000000000 Zn
atom_frac 0.1333299999999999 0.8666699999999999 0.0619900000000000 Zn
atom_frac 0.7333300000000000 0.6666700000000000 0.0619900000000000 Zn
atom_frac 0.3333300000000000 0.8666699999999999 0.0619900000000000 Zn
atom_frac 0.7333300000000000 0.8666699999999999 0.0619900000000000 Zn
atom_frac 0.1333300000000000 0.4666699999999999 0.0619900000000000 Zn
atom_frac 0.9333300000000000 0.0666700000000000 0.0619900000000000 Zn
atom_frac 0.5333300000000001 0.0666700000000000 0.0619900000000000 Zn
atom_frac 0.9333300000000000 0.2666700000000000 0.0619900000000000 Zn
atom_frac 0.3333300000000000 0.0666700000000000 0.0619900000000000 Zn
atom_frac 0.9333299999999999 0.4666699999999999 0.0619900000000000 Zn
atom_frac 0.5333300000000001 0.2666700000000000 0.0619900000000000 Zn
atom_frac 0.9333300000000000 0.6666700000000000 0.0619900000000000 Zn
atom_frac 0.1333300000000000 0.2666700000000000 0.0619900000000000 Zn
atom_frac 0.9333299999999999 0.8666699999999999 0.0619900000000000 Zn
atom_frac 0.7333300000000000 0.2666700000000000 0.1380100000000000 O
atom_frac 0.3333300000000000 0.4666699999999999 0.1380100000000000 O
atom_frac 0.5333300000000001 0.2666700000000000 0.1380100000000000 O
atom_frac 0.7333299999999999 0.4666699999999999 0.1380100000000000 O
atom_frac 0.1333300000000000 0.6666700000000000 0.1380100000000000 O
atom_frac 0.3333300000000000 0.0666700000000000 0.1380100000000000 O
atom_frac 0.7333300000000000 0.6666700000000000 0.1380100000000000 O
atom_frac 0.5333300000000001 0.4666699999999999 0.1380100000000000 O
atom_frac 0.3333300000000000 0.6666700000000000 0.1380100000000000 O
atom_frac 0.7333300000000000 0.8666699999999999 0.1380100000000000 O
atom_frac 0.1333300000000000 0.4666699999999999 0.1380100000000000 O
atom_frac 0.5333300000000001 0.6666700000000000 0.1380100000000000 O
atom_frac 0.9333300000000000 0.0666700000000000 0.1380100000000000 O
atom_frac 0.1333300000000000 0.0666700000000000 0.1380100000000000 O
atom_frac 0.3333300000000000 0.8666699999999999 0.1380100000000000 O
atom_frac 0.9333300000000000 0.2666700000000000 0.1380100000000000 O
atom_frac 0.5333300000000000 0.8666699999999999 0.1380100000000000 O
atom_frac 0.3333300000000000 0.2666700000000000 0.1380100000000000 O
atom_frac 0.9333299999999999 0.4666699999999999 0.1380100000000000 O
atom_frac 0.1333299999999999 0.8666699999999999 0.1380100000000000 O
atom_frac 0.7333300000000000 0.0666700000000000 0.1380100000000000 O
atom_frac 0.9333300000000000 0.6666700000000000 0.1380100000000000 O
atom_frac 0.5333300000000001 0.0666700000000000 0.1380100000000000 O
atom_frac 0.1333300000000000 0.2666700000000000 0.1380100000000000 O
atom_frac 0.9333299999999999 0.8666699999999999 0.1380100000000000 O
atom_frac 0.6666700000000000 0.7333300000000000 0.1619900000000000 Zn
atom_frac 0.4666700000000000 0.1333300000000000 0.1619900000000000 Zn
atom_frac 0.0666700000000000 0.9333300000000000 0.1619900000000000 Zn
atom_frac 0.4666700000000000 0.9333300000000000 0.1619900000000000 Zn
atom_frac 0.6666700000000000 0.9333300000000000 0.1619900000000000 Zn
atom_frac 0.0666700000000000 0.7333300000000000 0.1619900000000000 Zn
atom_frac 0.2666700000000000 0.7333300000000000 0.1619900000000000 Zn
atom_frac 0.4666700000000000 0.3333300000000000 0.1619900000000000 Zn
atom_frac 0.8666700000000001 0.1333300000000000 0.1619900000000000 Zn
atom_frac 0.6666700000000000 0.1333300000000000 0.1619900000000000 Zn
atom_frac 0.2666700000000000 0.3333300000000000 0.1619900000000000 Zn
atom_frac 0.0666700000000000 0.3333300000000000 0.1619900000000000 Zn
atom_frac 0.8666700000000001 0.3333300000000000 0.1619900000000000 Zn
atom_frac 0.0666700000000000 0.1333300000000000 0.1619900000000000 Zn
atom_frac 0.6666700000000000 0.3333300000000000 0.1619900000000000 Zn
atom_frac 0.4666700000000000 0.5333300000000000 0.1619900000000000 Zn
atom_frac 0.8666700000000001 0.5333300000000000 0.1619900000000000 Zn
atom_frac 0.2666700000000000 0.9333300000000000 0.1619900000000000 Zn
atom_frac 0.2666700000000000 0.1333300000000000 0.1619900000000000 Zn
atom_frac 0.6666700000000000 0.5333300000000000 0.1619900000000000 Zn
atom_frac 0.8666700000000001 0.7333300000000000 0.1619900000000000 Zn
atom_frac 0.2666700000000000 0.5333300000000000 0.1619900000000000 Zn
atom_frac 0.4666700000000000 0.7333300000000000 0.1619900000000000 Zn
atom_frac 0.0666700000000000 0.5333300000000000 0.1619900000000000 Zn
atom_frac 0.8666700000000001 0.9333300000000000 0.1619900000000000 Zn
atom_frac 0.4666700000000000 0.5333300000000000 0.2380100000000000 O
atom_frac 0.2666700000000000 0.3333300000000000 0.2380100000000000 O
atom_frac 0.0666700000000000 0.7333300000000000 0.2380100000000000 O
atom_frac 0.4666700000000000 0.1333300000000000 0.2380100000000000 O
atom_frac 0.8666700000000001 0.1333300000000000 0.2380100000000000 O
atom_frac 0.6666700000000000 0.3333300000000000 0.2380100000000000 O
atom_frac 0.2666700000000000 0.7333300000000000 0.2380100000000000 O
atom_frac 0.4666700000000000 0.7333300000000000 0.2380100000000000 O
atom_frac 0.2666700000000000 0.1333300000000000 0.2380100000000000 O
atom_frac 0.8666700000000001 0.3333300000000000 0.2380100000000000 O
atom_frac 0.0666700000000000 0.9333300000000000 0.2380100000000000 O
atom_frac 0.6666700000000000 0.5333300000000000 0.2380100000000000 O
atom_frac 0.0666700000000000 0.3333300000000000 0.2380100000000000 O
atom_frac 0.4666700000000000 0.3333300000000000 0.2380100000000000 O
atom_frac 0.8666700000000001 0.5333300000000000 0.2380100000000000 O
atom_frac 0.4666700000000000 0.9333300000000000 0.2380100000000000 O
atom_frac 0.2666700000000000 0.5333300000000000 0.2380100000000000 O
atom_frac 0.6666700000000000 0.7333300000000000 0.2380100000000000 O
atom_frac 0.2666700000000000 0.9333300000000000 0.2380100000000000 O
atom_frac 0.8666700000000001 0.7333300000000000 0.2380100000000000 O
atom_frac 0.0666700000000000 0.5333300000000000 0.2380100000000000 O
atom_frac 0.0666700000000000 0.1333300000000000 0.2380100000000000 O
atom_frac 0.6666700000000000 0.1333300000000000 0.2380100000000000 O
atom_frac 0.6666700000000000 0.9333300000000000 0.2380100000000000 O
atom_frac 0.8666700000000001 0.9333300000000000 0.2380100000000000 O
atom_frac 0.9333300000000000 0.0666700000000000 0.2619900000000000 Zn
atom_frac 0.1333300000000000 0.0666700000000000 0.2619900000000000 Zn
atom_frac 0.5333300000000000 0.8666699999999999 0.2619900000000000 Zn
atom_frac 0.7333299999999999 0.4666699999999999 0.2619900000000000 Zn
atom_frac 0.3333300000000000 0.6666700000000000 0.2619900000000000 Zn
atom_frac 0.1333300000000000 0.6666700000000000 0.2619900000000000 Zn
atom_frac 0.9333300000000000 0.2666700000000000 0.2619900000000000 Zn
atom_frac 0.5333300000000001 0.4666699999999999 0.2619900000000000 Zn
atom_frac 0.5333300000000001 0.0666700000000000 0.2619900000000000 Zn
atom_frac 0.1333300000000000 0.4666699999999999 0.2619900000000000 Zn
atom_frac 0.7333300000000000 0.6666700000000000 0.2619900000000000 Zn
atom_frac 0.7333300000000000 0.0666700000000000 0.2619900000000000 Zn
atom_frac 0.9333299999999999 0.4666699999999999 0.2619900000000000 Zn
atom_frac 0.3333300000000000 0.4666699999999999 0.2619900000000000 Zn
atom_frac 0.1333299999999999 0.8666699999999999 0.2619900000000000 Zn
atom_frac 0.3333300000000000 0.2666700000000000 0.2619900000000000 Zn
atom_frac 0.5333300000000001 0.6666700000000000 0.2619900000000000 Zn
atom_frac 0.7333300000000000 0.8666699999999999 0.2619900000000000 Zn
atom_frac 0.9333300000000000 0.6666700000000000 0.2619900000000000 Zn
atom_frac 0.3333300000000000 0.8666699999999999 0.2619900000000000 Zn
atom_frac 0.7333300000000000 0.2666700000000000 0.2619900000000000 Zn
atom_frac 0.5333300000000001 0.2666700000000000 0.2619900000000000 Zn
atom_frac 0.3333300000000000 0.0666700000000000 0.2619900000000000 Zn
atom_frac 0.1333300000000000 0.2666700000000000 0.2619900000000000 Zn
atom_frac 0.9333299999999999 0.8666699999999999 0.2619900000000000 Zn
atom_frac 0.7333300000000000 0.0666700000000000 0.3380100000000000 O
atom_frac 0.5333300000000001 0.2666700000000000 0.3380100000000000 O
atom_frac 0.5333300000000001 0.6666700000000000 0.3380100000000000 O
atom_frac 0.9333300000000000 0.2666700000000000 0.3380100000000000 O
atom_frac 0.7333300000000000 0.6666700000000000 0.3380100000000000 O
atom_frac 0.3333300000000000 0.6666700000000000 0.3380100000000000 O
atom_frac 0.3333300000000000 0.0666700000000000 0.3380100000000000 O
atom_frac 0.3333300000000000 0.4666699999999999 0.3380100000000000 O
atom_frac 0.3333300000000000 0.2666700000000000 0.3380100000000000 O
atom_frac 0.7333300000000000 0.2666700000000000 0.3380100000000000 O
atom_frac 0.9333299999999999 0.4666699999999999 0.3380100000000000 O
atom_frac 0.5333300000000001 0.0666700000000000 0.3380100000000000 O
atom_frac 0.7333300000000000 0.8666699999999999 0.3380100000000000 O
atom_frac 0.1333300000000000 0.6666700000000000 0.3380100000000000 O
atom_frac 0.5333300000000000 0.8666699999999999 0.3380100000000000 O
atom_frac 0.5333300000000001 0.4666699999999999 0.3380100000000000 O
atom_frac 0.1333300000000000 0.0666700000000000 0.3380100000000000 O
atom_frac 0.9333300000000000 0.6666700000000000 0.3380100000000000 O
atom_frac 0.1333300000000000 0.2666700000000000 0.3380100000000000 O
atom_frac 0.7333299999999999 0.4666699999999999 0.3380100000000000 O
atom_frac 0.9333300000000000 0.0666700000000000 0.3380100000000000 O
atom_frac 0.3333300000000000 0.8666699999999999 0.3380100000000000 O
atom_frac 0.1333299999999999 0.8666699999999999 0.3380100000000000 O
atom_frac 0.1333300000000000 0.4666699999999999 0.3380100000000000 O
atom_frac 0.9333299999999999 0.8666699999999999 0.3380100000000000 O
atom_frac 0.8666700000000001 0.3333300000000000 0.3619900000000000 Zn
atom_frac 0.6666700000000000 0.3333300000000000 0.3619900000000000 Zn
atom_frac 0.4666700000000000 0.9333300000000000 0.3619900000000000 Zn
atom_frac 0.2666700000000000 0.7333300000000000 0.3619900000000000 Zn
atom_frac 0.2666700000000000 0.5333300000000000 0.3619900000000000 Zn
atom_frac 0.0666700000000000 0.3333300000000000 0.3619900000000000 Zn
atom_frac 0.6666700000000000 0.9333300000000000 0.3619900000000000 Zn
atom_frac 0.4666700000000000 0.3333300000000000 0.3619900000000000 Zn
atom_frac 0.8666700000000001 0.5333300000000000 0.3619900000000000 Zn
atom_frac 0.0666700000000000 0.9333300000000000 0.3619900000000000 Zn
atom_frac 0.0666700000000000 0.7333300000000000 0.3619900000000000 Zn
atom_frac 0.6666700000000000 0.5333300000000000 0.3619900000000000 Zn
atom_frac 0.4666700000000000 0.7333300000000000 0.3619900000000000 Zn
atom_frac 0.6666700000000000 0.1333300000000000 0.3619900000000000 Zn
atom_frac 0.0666700000000000 0.1333300000000000 0.3619900000000000 Zn
atom_frac 0.8666700000000001 0.1333300000000000 0.3619900000000000 Zn
atom_frac 0.8666700000000001 0.7333300000000000 0.3619900000000000 Zn
atom_frac 0.4666700000000000 0.1333300000000000 0.3619900000000000 Zn
atom_frac 0.2666700000000000 0.1333300000000000 0.3619900000000000 Zn
atom_frac 0.0666700000000000 0.5333300000000000 0.3619900000000000 Zn
atom_frac 0.2666700000000000 0.9333300000000000 0.3619900000000000 Zn
atom_frac 0.6666700000000000 0.7333300000000000 0.3619900000000000 Zn
atom_frac 0.4666700000000000 0.5333300000000000 0.3619900000000000 Zn
atom_frac 0.2666700000000000 0.3333300000000000 0.3619900000000000 Zn
atom_frac 0.8666700000000001 0.9333300000000000 0.3619900000000000 Zn
atom_frac 0.2666700000000000 0.7333300000000000 0.4380100000000000 O
atom_frac 0.6666700000000000 0.9333300000000000 0.4380100000000000 O
atom_frac 0.6666700000000000 0.1333300000000000 0.4380100000000000 O
atom_frac 0.6666700000000000 0.5333300000000000 0.4380100000000000 O
atom_frac 0.0666700000000000 0.1333300000000000 0.4380100000000000 O
atom_frac 0.0666700000000000 0.3333300000000000 0.4380100000000000 O
atom_frac 0.8666700000000001 0.5333300000000000 0.4380100000000000 O
atom_frac 0.4666700000000000 0.5333300000000000 0.4380100000000000 O
atom_frac 0.2666700000000000 0.1333300000000000 0.4380100000000000 O
atom_frac 0.0666700000000000 0.7333300000000000 0.4380100000000000 O
atom_frac 0.0666700000000000 0.9333300000000000 0.4380100000000000 O
atom_frac 0.8666700000000001 0.1333300000000000 0.4380100000000000 O
atom_frac 0.4666700000000000 0.9333300000000000 0.4380100000000000 O
atom_frac 0.4666700000000000 0.3333300000000000 0.4380100000000000 O
atom_frac 0.6666700000000000 0.7333300000000000 0.4380100000000000 O
atom_frac 0.8666700000000001 0.7333300000000000 0.4380100000000000 O
atom_frac 0.6666700000000000 0.3333300000000000 0.4380100000000000 O
atom_frac 0.2666700000000000 0.3333300000000000 0.4380100000000000 O
atom_frac 0.0666700000000000 0.5333300000000000 0.4380100000000000 O
atom_frac 0.4666700000000000 0.1333300000000000 0.4380100000000000 O
atom_frac 0.2666700000000000 0.5333300000000000 0.4380100000000000 O
atom_frac 0.8666700000000001 0.3333300000000000 0.4380100000000000 O
atom_frac 0.4666700000000000 0.7333300000000000 0.4380100000000000 O
atom_frac 0.2666700000000000 0.9333300000000000 0.4380100000000000 O
atom_frac 0.8666700000000001 0.9333300000000000 0.4380100000000000 O
atom_frac 0.9333299999999999 0.4666699999999999 0.4619900000000000 Zn
atom_frac 0.1333300000000000 0.4666699999999999 0.4619900000000000 Zn
atom_frac 0.9333300000000000 0.0666700000000000 0.4619900000000000 Zn
atom_frac 0.5333300000000001 0.6666700000000000 0.4619900000000000 Zn
atom_frac 0.3333300000000000 0.2666700000000000 0.4619900000000000 Zn
atom_frac 0.1333300000000000 0.6666700000000000 0.4619900000000000 Zn
atom_frac 0.1333300000000000 0.2666700000000000 0.4619900000000000 Zn
atom_frac 0.5333300000000001 0.4666699999999999 0.4619900000000000 Zn
atom_frac 0.9333300000000000 0.6666700000000000 0.4619900000000000 Zn
atom_frac 0.7333300000000000 0.0666700000000000 0.4619900000000000 Zn
atom_frac 0.3333300000000000 0.0666700000000000 0.4619900000000000 Zn
atom_frac 0.9333300000000000 0.2666700000000000 0.4619900000000000 Zn
atom_frac 0.7333299999999999 0.4666699999999999 0.4619900000000000 Zn
atom_frac 0.7333300000000000 0.8666699999999999 0.4619900000000000 Zn
atom_frac 0.5333300000000001 0.2666700000000000 0.4619900000000000 Zn
atom_frac 0.3333300000000000 0.6666700000000000 0.4619900000000000 Zn
atom_frac 0.5333300000000001 0.0666700000000000 0.4619900000000000 Zn
atom_frac 0.9333299999999999 0.8666699999999999 0.4619900000000000 Zn
atom_frac 0.8653900000000000 0.5318700000000000 0.6343700000000001 Pd
atom_frac 0.9655300000000000 0.4317300000000000 0.6343700000000001 Pd
atom_frac 0.0656800000000000 0.3315800000000000 0.6343700000000001 Pd
atom_frac 0.1658300000000000 0.2314400000000000 0.6343700000000001 Pd
atom_frac 0.2659700000000000 0.1313000000000000 0.6343700000000001 Pd
atom_frac 0.3661200000000000 0.0311500000000000 0.6343700000000001 Pd
atom_frac 0.4662700000000000 0.9310100000000000 0.6343700000000001 Pd
atom_frac 0.5664099999999999 0.8308699999999999 0.6343700000000001 Pd
atom_frac 0.6665600000000002 0.7307300000000000 0.6343700000000001 Pd
atom_frac 0.7667099999999999 0.6305799999999999 0.6343700000000001 Pd
