#=======================================================
# FHI-aims file: ./geometry.in
# Created using the Atomic Simulation Environment (ASE)
# Wed Feb 28 06:51:06 2024
#=======================================================
lattice_vector 15.8217299999999987 0.0000000000000000 0.0000000000000000 
lattice_vector 0.0000000000000000 17.0018099999999990 0.0000000000000000 
lattice_vector 0.0000000000000000 0.0000000000000000 26.1759999999999984 
atom_frac 0.1675633333333333 0.3055566666666667 0.3437500000000000 Zn
    constrain_relaxation .true.
atom_frac 0.0008966666666667 0.1944466666666667 0.3437500000000000 Zn
    constrain_relaxation .true.
atom_frac 0.0382700000000000 0.3055633333333334 0.3437500000000000 O
    constrain_relaxation .true.
atom_frac 0.2049366666666667 0.1944466666666667 0.3437500000000000 O
    constrain_relaxation .true.
atom_frac 0.1675633333333333 0.1388900000000000 0.4062499999999999 Zn
    constrain_relaxation .true.
atom_frac 0.0008966666666667 0.0277800000000000 0.4062499999999999 Zn
    constrain_relaxation .true.
atom_frac 0.0382700000000000 0.1388966666666667 0.4062499999999999 O
    constrain_relaxation .true.
atom_frac 0.2049366666666667 0.0277800000000000 0.4062499999999999 O
    constrain_relaxation .true.
atom_frac 0.1675633333333333 0.3055566666666667 0.4687500000000000 Zn
    constrain_relaxation .true.
atom_frac 0.0008966666666667 0.1944466666666667 0.4687500000000000 Zn
    constrain_relaxation .true.
atom_frac 0.0382700000000000 0.3055633333333334 0.4687500000000000 O
    constrain_relaxation .true.
atom_frac 0.2049366666666667 0.1944466666666667 0.4687500000000000 O
    constrain_relaxation .true.
atom_frac 0.1669447805824281 0.1376390062830203 0.5299557548889725 Zn
atom_frac -0.0000058859447142 0.0278705126065886 0.5302726669764251 Zn
atom_frac 0.0404078364604682 0.1388702844813193 0.5304930934153396 O
atom_frac 0.2071106946623927 0.0268415783808169 0.5310017954894326 O
atom_frac 0.1702235827476894 0.3039318903788253 0.5962038407542640 Zn
atom_frac 0.0013849955321154 0.1954344834934258 0.5940360615428862 Zn
atom_frac 0.0419780605416343 0.3054062388662928 0.5937365345132884 O
atom_frac 0.2072438269523660 0.1928662978488355 0.5930124995499867 O
atom_frac 0.1587938264022682 0.1254259324074284 0.6455405002786109 Zn
atom_frac -0.0077534547543709 0.0385640173294265 0.6456109556501897 Zn
atom_frac 0.0422377620373489 0.1380742007666898 0.6536142959651573 O
atom_frac 0.2103504552276594 0.0266917765145440 0.6539871092547705 O
atom_frac 0.1675633333333333 0.6388900000000000 0.3437500000000000 Zn
    constrain_relaxation .true.
atom_frac 0.0008966666666667 0.5277800000000000 0.3437500000000000 Zn
    constrain_relaxation .true.
atom_frac 0.0382700000000000 0.6388966666666667 0.3437500000000000 O
    constrain_relaxation .true.
atom_frac 0.2049366666666667 0.5277800000000000 0.3437500000000000 O
    constrain_relaxation .true.
atom_frac 0.1675633333333333 0.4722233333333334 0.4062499999999999 Zn
    constrain_relaxation .true.
atom_frac 0.0008966666666667 0.3611133333333334 0.4062499999999999 Zn
    constrain_relaxation .true.
atom_frac 0.0382700000000000 0.4722300000000001 0.4062499999999999 O
    constrain_relaxation .true.
atom_frac 0.2049366666666667 0.3611133333333334 0.4062499999999999 O
    constrain_relaxation .true.
atom_frac 0.1675633333333333 0.6388900000000000 0.4687500000000000 Zn
    constrain_relaxation .true.
atom_frac 0.0008966666666667 0.5277800000000000 0.4687500000000000 Zn
    constrain_relaxation .true.
atom_frac 0.0382700000000000 0.6388966666666667 0.4687500000000000 O
    constrain_relaxation .true.
atom_frac 0.2049366666666667 0.5277800000000000 0.4687500000000000 O
    constrain_relaxation .true.
atom_frac 0.1656929589533981 0.4708047036138227 0.5295557702962140 Zn
atom_frac 0.0013601317588185 0.3604837647054191 0.5305594544536688 Zn
atom_frac 0.0391710040305975 0.4718461162288691 0.5309235421561773 O
atom_frac 0.2057005492110651 0.3601915052967906 0.5310522785249542 O
atom_frac 0.1698411996524063 0.6370486676034585 0.5951141746994596 Zn
atom_frac 0.0013669892791759 0.5292218616058606 0.5947395958134445 Zn
atom_frac 0.0430907262947373 0.6380664958683562 0.5930043357472568 O
atom_frac 0.2070506983444236 0.5264916232638724 0.5919908015183269 O
atom_frac 0.1618161169102264 0.4580389315651956 0.6455998043299509 Zn
atom_frac -0.0075407318152498 0.3728466176469754 0.6458573820178160 Zn
atom_frac 0.0439699958490417 0.4711241221838485 0.6531988419781473 O
atom_frac 0.2145398869129239 0.3616244469266068 0.6545471504388615 O
atom_frac 0.1675633333333333 0.9722233333333334 0.3437500000000000 Zn
    constrain_relaxation .true.
atom_frac 0.0008966666666667 0.8611133333333334 0.3437500000000000 Zn
    constrain_relaxation .true.
atom_frac 0.0382700000000000 0.9722300000000000 0.3437500000000000 O
    constrain_relaxation .true.
atom_frac 0.2049366666666667 0.8611133333333334 0.3437500000000000 O
    constrain_relaxation .true.
atom_frac 0.1675633333333333 0.8055566666666667 0.4062499999999999 Zn
    constrain_relaxation .true.
atom_frac 0.0008966666666667 0.6944466666666668 0.4062499999999999 Zn
    constrain_relaxation .true.
atom_frac 0.0382700000000000 0.8055633333333333 0.4062499999999999 O
    constrain_relaxation .true.
atom_frac 0.2049366666666667 0.6944466666666668 0.4062499999999999 O
    constrain_relaxation .true.
atom_frac 0.1675633333333333 0.9722233333333334 0.4687500000000000 Zn
    constrain_relaxation .true.
atom_frac 0.0008966666666667 0.8611133333333334 0.4687500000000000 Zn
    constrain_relaxation .true.
atom_frac 0.0382700000000000 0.9722300000000000 0.4687500000000000 O
    constrain_relaxation .true.
atom_frac 0.2049366666666667 0.8611133333333334 0.4687500000000000 O
    constrain_relaxation .true.
atom_frac 0.1679232273995616 0.8051205495444222 0.5304388985753533 Zn
atom_frac 0.0009794984935187 0.6953732835587130 0.5304606465570608 Zn
atom_frac 0.0415479125884720 0.8058557357498386 0.5305581736062436 O
atom_frac 0.2056836710175645 0.6939699067519408 0.5308467582809865 O
atom_frac 0.1685405377835215 0.9691124864120997 0.5946193860395582 Zn
atom_frac 0.0033907840277360 0.8623078745720445 0.5943219143837570 Zn
atom_frac 0.0425878993495000 0.9723889174105717 0.5928434224701040 O
atom_frac 0.2094668962826089 0.8595808593544532 0.5937537255977876 O
atom_frac 0.1633770485367294 0.7903683684322113 0.6467782793700837 Zn
atom_frac -0.0036204856539277 0.7057919666460972 0.6460446846474479 Zn
atom_frac 0.0474376483756922 0.8045592309480967 0.6535460241096516 O
atom_frac 0.2163176240530774 0.6918667590927684 0.6538532804127718 O
atom_frac 0.5008966666666668 0.3055566666666667 0.3437500000000000 Zn
    constrain_relaxation .true.
atom_frac 0.3342300000000000 0.1944466666666667 0.3437500000000000 Zn
    constrain_relaxation .true.
atom_frac 0.3716033333333334 0.3055633333333334 0.3437500000000000 O
    constrain_relaxation .true.
atom_frac 0.5382700000000000 0.1944466666666667 0.3437500000000000 O
    constrain_relaxation .true.
atom_frac 0.5008966666666668 0.1388900000000000 0.4062499999999999 Zn
    constrain_relaxation .true.
atom_frac 0.3342300000000000 0.0277800000000000 0.4062499999999999 Zn
    constrain_relaxation .true.
atom_frac 0.3716033333333334 0.1388966666666667 0.4062499999999999 O
    constrain_relaxation .true.
atom_frac 0.5382700000000000 0.0277800000000000 0.4062499999999999 O
    constrain_relaxation .true.
atom_frac 0.5008966666666668 0.3055566666666667 0.4687500000000000 Zn
    constrain_relaxation .true.
atom_frac 0.3342300000000000 0.1944466666666667 0.4687500000000000 Zn
    constrain_relaxation .true.
atom_frac 0.3716033333333334 0.3055633333333334 0.4687500000000000 O
    constrain_relaxation .true.
atom_frac 0.5382700000000000 0.1944466666666667 0.4687500000000000 O
    constrain_relaxation .true.
atom_frac 0.4987150683483664 0.1371759125747327 0.5298370778821322 Zn
atom_frac 0.3333323320859857 0.0272777581181349 0.5306269992357490 Zn
atom_frac 0.3726531827223407 0.1387974036542659 0.5314879064539000 O
atom_frac 0.5389670423343330 0.0265669352879421 0.5314305241207281 O
atom_frac 0.4953975240320379 0.3019037467120747 0.5939122312731911 Zn
atom_frac 0.3330191157985384 0.1965419610708729 0.5952520630537366 Zn
atom_frac 0.3719729623473318 0.3062782118875940 0.5951393577666593 O
atom_frac 0.5407746236593102 0.1932676986310882 0.5930687488266552 O
atom_frac 0.4919935391490821 0.1250544281951929 0.6454333087427694 Zn
atom_frac 0.3265904548892656 0.0390072849993432 0.6461588667770551 Zn
atom_frac 0.3759194767258447 0.1392476746964029 0.6553176245804964 O
atom_frac 0.5426242336591902 0.0263825155062958 0.6534609288191325 O
atom_frac 0.5008966666666668 0.6388900000000000 0.3437500000000000 Zn
    constrain_relaxation .true.
atom_frac 0.3342300000000000 0.5277800000000000 0.3437500000000000 Zn
    constrain_relaxation .true.
atom_frac 0.3716033333333334 0.6388966666666667 0.3437500000000000 O
    constrain_relaxation .true.
atom_frac 0.5382700000000000 0.5277800000000000 0.3437500000000000 O
    constrain_relaxation .true.
atom_frac 0.5008966666666668 0.4722233333333334 0.4062499999999999 Zn
    constrain_relaxation .true.
atom_frac 0.3342300000000000 0.3611133333333334 0.4062499999999999 Zn
    constrain_relaxation .true.
atom_frac 0.3716033333333334 0.4722300000000001 0.4062499999999999 O
    constrain_relaxation .true.
atom_frac 0.5382700000000000 0.3611133333333334 0.4062499999999999 O
    constrain_relaxation .true.
atom_frac 0.5008966666666668 0.6388900000000000 0.4687500000000000 Zn
    constrain_relaxation .true.
atom_frac 0.3342300000000000 0.5277800000000000 0.4687500000000000 Zn
    constrain_relaxation .true.
atom_frac 0.3716033333333334 0.6388966666666667 0.4687500000000000 O
    constrain_relaxation .true.
atom_frac 0.5382700000000000 0.5277800000000000 0.4687500000000000 O
    constrain_relaxation .true.
atom_frac 0.4976097760822475 0.4675826874347820 0.5272251414432562 Zn
atom_frac 0.3318609618753334 0.3600175101577888 0.5322771209056097 Zn
atom_frac 0.3724800687215971 0.4703228905382614 0.5292285525515055 O
atom_frac 0.5401775808039624 0.3582505080572247 0.5315850127116614 O
atom_frac 0.4990767079865706 0.6364428240910539 0.5912997240958288 Zn
atom_frac 0.3324136868543266 0.5260241172239106 0.5927622911728460 Zn
atom_frac 0.3729384902608029 0.6368671040927689 0.5906386867850242 O
atom_frac 0.5453654913356580 0.5279727865135375 0.5855328681870797 O
atom_frac 0.5036751876963309 0.4725588908155719 0.6453955956930506 Zn
atom_frac 0.3361315721919726 0.3664062627349010 0.6626569732015206 Zn
atom_frac 0.3816028219762758 0.4719162525282192 0.6498244213095192 O
atom_frac 0.5458244365009307 0.3621014132683403 0.6520138175603228 O
atom_frac 0.5008966666666668 0.9722233333333334 0.3437500000000000 Zn
    constrain_relaxation .true.
atom_frac 0.3342300000000000 0.8611133333333334 0.3437500000000000 Zn
    constrain_relaxation .true.
atom_frac 0.3716033333333334 0.9722300000000000 0.3437500000000000 O
    constrain_relaxation .true.
atom_frac 0.5382700000000000 0.8611133333333334 0.3437500000000000 O
    constrain_relaxation .true.
atom_frac 0.5008966666666668 0.8055566666666667 0.4062499999999999 Zn
    constrain_relaxation .true.
atom_frac 0.3342300000000000 0.6944466666666668 0.4062499999999999 Zn
    constrain_relaxation .true.
atom_frac 0.3716033333333334 0.8055633333333333 0.4062499999999999 O
    constrain_relaxation .true.
atom_frac 0.5382700000000000 0.6944466666666668 0.4062499999999999 O
    constrain_relaxation .true.
atom_frac 0.5008966666666668 0.9722233333333334 0.4687500000000000 Zn
    constrain_relaxation .true.
atom_frac 0.3342300000000000 0.8611133333333334 0.4687500000000000 Zn
    constrain_relaxation .true.
atom_frac 0.3716033333333334 0.9722300000000000 0.4687500000000000 O
    constrain_relaxation .true.
atom_frac 0.5382700000000000 0.8611133333333334 0.4687500000000000 O
    constrain_relaxation .true.
atom_frac 0.4988562823784800 0.8059823280645908 0.5303200628017380 Zn
atom_frac 0.3314628811220722 0.6957804411876344 0.5298620275329083 Zn
atom_frac 0.3726739145325123 0.8058978575965735 0.5305928241217186 O
atom_frac 0.5413925621367028 0.6953911607216446 0.5297361001086934 O
atom_frac 0.5000759673806178 0.9664073212765495 0.5952495188692720 Zn
atom_frac 0.3359721680832897 0.8591655311258266 0.5962783761843670 Zn
atom_frac 0.3740878651270227 0.9710801472912810 0.5935047356568836 O
atom_frac 0.5414959561975637 0.8566263086963519 0.5938588085660844 O
atom_frac 0.5007966103790092 0.7764062878562940 0.6461926574496547 Zn
atom_frac 0.3358868928397176 0.6972224369213174 0.6525486875217742 Zn
atom_frac 0.3840995784280327 0.8001041447455881 0.6520395314727295 O
atom_frac 0.8342300000000000 0.3055566666666667 0.3437500000000000 Zn
    constrain_relaxation .true.
atom_frac 0.6675633333333334 0.1944466666666667 0.3437500000000000 Zn
    constrain_relaxation .true.
atom_frac 0.7049366666666668 0.3055633333333334 0.3437500000000000 O
    constrain_relaxation .true.
atom_frac 0.8716033333333335 0.1944466666666667 0.3437500000000000 O
    constrain_relaxation .true.
atom_frac 0.8342300000000000 0.1388900000000000 0.4062499999999999 Zn
    constrain_relaxation .true.
atom_frac 0.6675633333333334 0.0277800000000000 0.4062499999999999 Zn
    constrain_relaxation .true.
atom_frac 0.7049366666666668 0.1388966666666667 0.4062499999999999 O
    constrain_relaxation .true.
atom_frac 0.8716033333333335 0.0277800000000000 0.4062499999999999 O
    constrain_relaxation .true.
atom_frac 0.8342300000000000 0.3055566666666667 0.4687500000000000 Zn
    constrain_relaxation .true.
atom_frac 0.6675633333333334 0.1944466666666667 0.4687500000000000 Zn
    constrain_relaxation .true.
atom_frac 0.7049366666666668 0.3055633333333334 0.4687500000000000 O
    constrain_relaxation .true.
atom_frac 0.8716033333333335 0.1944466666666667 0.4687500000000000 O
    constrain_relaxation .true.
atom_frac 0.8327996566101828 0.1380410175005305 0.5299552769497770 Zn
atom_frac 0.6651899881302487 0.0284001528534125 0.5298488416528060 Zn
atom_frac 0.7061262719946738 0.1394460784400074 0.5310962691032650 O
atom_frac 0.8736277667341067 0.0278818009417630 0.5306382708051409 O
atom_frac 0.8354646865925615 0.3026940316212005 0.5944634118271321 Zn
atom_frac 0.6668741686951805 0.1966642525100787 0.5944049227313819 Zn
atom_frac 0.7092031443965731 0.3067971569193588 0.5929683889159589 O
atom_frac 0.8747335167919872 0.1933645482347360 0.5931625205543047 O
atom_frac 0.8256700668018404 0.1251177286591824 0.6456323577612781 Zn
atom_frac 0.6586234602376119 0.0400445973019919 0.6452843942598419 Zn
atom_frac 0.7091914386853072 0.1394923411825263 0.6536663453038160 O
atom_frac 0.8757067875950937 0.0261466201834134 0.6534664494140823 O
atom_frac 0.8342300000000000 0.6388900000000000 0.3437500000000000 Zn
    constrain_relaxation .true.
atom_frac 0.6675633333333334 0.5277800000000000 0.3437500000000000 Zn
    constrain_relaxation .true.
atom_frac 0.7049366666666668 0.6388966666666667 0.3437500000000000 O
    constrain_relaxation .true.
atom_frac 0.8716033333333335 0.5277800000000000 0.3437500000000000 O
    constrain_relaxation .true.
atom_frac 0.8342300000000000 0.4722233333333334 0.4062499999999999 Zn
    constrain_relaxation .true.
atom_frac 0.6675633333333334 0.3611133333333334 0.4062499999999999 Zn
    constrain_relaxation .true.
atom_frac 0.7049366666666668 0.4722300000000001 0.4062499999999999 O
    constrain_relaxation .true.
atom_frac 0.8716033333333335 0.3611133333333334 0.4062499999999999 O
    constrain_relaxation .true.
atom_frac 0.8342300000000000 0.6388900000000000 0.4687500000000000 Zn
    constrain_relaxation .true.
atom_frac 0.6675633333333334 0.5277800000000000 0.4687500000000000 Zn
    constrain_relaxation .true.
atom_frac 0.7049366666666668 0.6388966666666667 0.4687500000000000 O
    constrain_relaxation .true.
atom_frac 0.8716033333333335 0.5277800000000000 0.4687500000000000 O
    constrain_relaxation .true.
atom_frac 0.8352378627995639 0.4705664411544320 0.5299551486696304 Zn
atom_frac 0.6660853077144707 0.3623857277631901 0.5298395423348589 Zn
atom_frac 0.7088350692040946 0.4723212962149874 0.5310495661292657 O
atom_frac 0.8743412199159920 0.3601238602053294 0.5313037703060154 O
atom_frac 0.8348139872445497 0.6389888755216375 0.5945286287323234 Zn
atom_frac 0.6684927917504454 0.5355552426639846 0.5907268088284278 Zn
atom_frac 0.7091753484924850 0.6440981294327485 0.5935008260551238 O
atom_frac 0.8739293754709990 0.5279538820075714 0.5933410883708911 O
atom_frac 0.8267245223243229 0.4625726151346395 0.6465097520431121 Zn
atom_frac 0.6629780603952752 0.3731725839265170 0.6447052868858262 Zn
atom_frac 0.7076124426158195 0.4773765773985045 0.6560140542934042 O
atom_frac 0.8739619980025839 0.3634161526476345 0.6538542333806858 O
atom_frac 0.8342300000000000 0.9722233333333334 0.3437500000000000 Zn
    constrain_relaxation .true.
atom_frac 0.6675633333333334 0.8611133333333334 0.3437500000000000 Zn
    constrain_relaxation .true.
atom_frac 0.7049366666666668 0.9722300000000000 0.3437500000000000 O
    constrain_relaxation .true.
atom_frac 0.8716033333333335 0.8611133333333334 0.3437500000000000 O
    constrain_relaxation .true.
atom_frac 0.8342300000000000 0.8055566666666667 0.4062499999999999 Zn
    constrain_relaxation .true.
atom_frac 0.6675633333333334 0.6944466666666668 0.4062499999999999 Zn
    constrain_relaxation .true.
atom_frac 0.7049366666666668 0.8055633333333333 0.4062499999999999 O
    constrain_relaxation .true.
atom_frac 0.8716033333333335 0.6944466666666668 0.4062499999999999 O
    constrain_relaxation .true.
atom_frac 0.8342300000000000 0.9722233333333334 0.4687500000000000 Zn
    constrain_relaxation .true.
atom_frac 0.6675633333333334 0.8611133333333334 0.4687500000000000 Zn
    constrain_relaxation .true.
atom_frac 0.7049366666666668 0.9722300000000000 0.4687500000000000 O
    constrain_relaxation .true.
atom_frac 0.8716033333333335 0.8611133333333334 0.4687500000000000 O
    constrain_relaxation .true.
atom_frac 0.8340410182853613 0.8049378061338281 0.5300063690371180 Zn
atom_frac 0.6682590070490275 0.6968254726832657 0.5300515811906663 Zn
atom_frac 0.7083870652551203 0.8072053330489529 0.5304058186952151 O
atom_frac 0.8745310292222020 0.6940840621023386 0.5307869071170528 O
atom_frac 0.8335741911269613 0.9698046994425704 0.5936170299789947 Zn
atom_frac 0.6673686708064853 0.8628818492062725 0.5941408558170418 Zn
atom_frac 0.7077978108179862 0.9729191680956979 0.5923660061576808 O
atom_frac 0.8768335519605076 0.8608304460264401 0.5922892595298159 O
atom_frac 0.8279387721527320 0.7927228937469127 0.6444284034881631 Zn
atom_frac 0.6523611109279176 0.7084253987831830 0.6484562213477506 Zn
atom_frac 0.7125643059148282 0.8046293982377731 0.6520101552674016 O
atom_frac 0.8795544903186983 0.6938700466252481 0.6538772965646700 O
atom_frac 0.4496773280715913 0.5194786510945520 0.7295842596311817 Pd
atom_frac 0.3389310197887746 0.4245563247481549 0.7734781337527216 Pd
atom_frac 0.3934101668195319 0.2908344701273819 0.7384408157727173 Pd
atom_frac 0.5663473336559104 0.5325467846182568 0.8047292169959189 Pd
atom_frac 0.4797763170913108 0.3999858288343999 0.8207518368257865 Pd
atom_frac 0.4060968950925796 0.5430588917235128 0.8268494501855037 Pd
atom_frac 0.4298238985405614 0.6576072458171190 0.7625209258790671 Pd
atom_frac 0.5307179071843332 0.6427207204166231 0.6856280222631667 Pd
atom_frac 0.5178654241510504 0.3819116932373727 0.7301078203032525 Pd
atom_frac 0.6232289899108125 0.5086255193279958 0.7164938563292809 Pd

