#===============================================================================
# Created using the Atomic Simulation Environment (ASE)

# Wed Feb  4 09:35:47 2026

#=======================================================
lattice_vector 16.3030000000000008 0.0000000000000000 0.0000000000000000
lattice_vector -8.1514999999999969 14.1188121578977057 0.0000000000000000
lattice_vector 0.0000000000000000 0.0000000000000000 36.7119900000000001
atom -0.0000000000000024 1.8825082877196944 25.2261719172000021 O
atom -1.6303000000000016 4.7062707192992361 25.2261719172000021 O
atom -3.2606000000000015 7.5300331508787766 25.2261719172000021 O
atom -4.8909000000000002 10.3537955824583161 25.2261719172000021 O
atom -6.5211999999999994 13.1775580140378565 25.2261719172000021 O
atom 3.2605999999999971 1.8825082877196944 25.2261719172000021 O
atom 1.6302999999999988 4.7062707192992361 25.2261719172000021 O
atom -0.0000000000000013 7.5300331508787766 25.2261719172000021 O
atom -1.6303000000000003 10.3537955824583161 25.2261719172000021 O
atom -3.2606000000000002 13.1775580140378565 25.2261719172000021 O
atom 6.5211999999999986 1.8825082877196944 25.2261719172000021 O
atom 4.8908999999999994 4.7062707192992361 25.2261719172000021 O
atom 3.2605999999999988 7.5300331508787766 25.2261719172000021 O
atom 1.6302999999999999 10.3537955824583161 25.2261719172000021 O
atom -0.0000000000000001 13.1775580140378565 25.2261719172000021 O
atom 9.7817999999999969 1.8825082877196944 25.2261719172000021 O
atom 8.1514999999999969 4.7062707192992361 25.2261719172000021 O
atom 6.5212000000000003 7.5300331508787766 25.2261719172000021 O
atom 4.8908999999999994 10.3537955824583161 25.2261719172000021 O
atom 3.2606000000000011 13.1775580140378565 25.2261719172000021 O
atom 13.0423999999999971 1.8825082877196944 25.2261719172000021 O
atom 11.4120999999999970 4.7062707192992361 25.2261719172000021 O
atom 9.7817999999999987 7.5300331508787766 25.2261719172000021 O
atom 8.1514999999999986 10.3537955824583161 25.2261719172000021 O
atom 6.5211999999999994 13.1775580140378565 25.2261719172000021 O
atom 4.8909000000000002 6.5887790070189292 24.5972430828000022 Zn
atom 3.2605999999999984 3.7650165754393883 24.5972430828000022 Zn
atom 3.2606000000000002 9.4125414385984723 24.5972430828000022 Zn
atom -3.2606000000000011 9.4125414385984723 24.5972430828000022 Zn
atom 1.6302999999999994 12.2363038701780127 24.5972430828000022 Zn
atom 1.6302999999999983 6.5887790070189292 24.5972430828000022 Zn
atom 11.4120999999999970 0.9412541438598472 24.5972430828000022 Zn
atom 1.6302999999999976 0.9412541438598472 24.5972430828000022 Zn
atom 9.7817999999999969 3.7650165754393883 24.5972430828000022 Zn
atom -0.0000000000000009 9.4125414385984723 24.5972430828000022 Zn
atom 8.1514999999999986 6.5887790070189292 24.5972430828000022 Zn
atom -4.8908999999999994 12.2363038701780127 24.5972430828000022 Zn
atom 6.5211999999999986 9.4125414385984723 24.5972430828000022 Zn
atom -1.6302999999999999 12.2363038701780127 24.5972430828000022 Zn
atom 4.8909000000000020 12.2363038701780127 24.5972430828000022 Zn
atom -1.6303000000000010 6.5887790070189292 24.5972430828000022 Zn
atom 14.6726999999999972 0.9412541438598472 24.5972430828000022 Zn
atom 8.1514999999999969 0.9412541438598472 24.5972430828000022 Zn
atom 13.0423999999999971 3.7650165754393883 24.5972430828000022 Zn
atom 4.8908999999999976 0.9412541438598472 24.5972430828000022 Zn
atom 11.4120999999999988 6.5887790070189292 24.5972430828000022 Zn
atom 6.5211999999999994 3.7650165754393883 24.5972430828000022 Zn
atom 9.7817999999999987 9.4125414385984723 24.5972430828000022 Zn
atom -0.0000000000000017 3.7650165754393883 24.5972430828000022 Zn
atom 8.1515000000000004 12.2363038701780127 24.5972430828000022 Zn
atom 9.7817999999999969 3.7650165754393883 22.6038869172000005 O
atom 1.6302999999999983 6.5887790070189292 22.6038869172000005 O
atom 6.5211999999999994 3.7650165754393883 22.6038869172000005 O
atom 8.1514999999999986 6.5887790070189292 22.6038869172000005 O
atom -3.2606000000000011 9.4125414385984723 22.6038869172000005 O
atom 4.8908999999999976 0.9412541438598472 22.6038869172000005 O
atom 6.5211999999999986 9.4125414385984723 22.6038869172000005 O
atom 4.8909000000000002 6.5887790070189292 22.6038869172000005 O
atom -0.0000000000000009 9.4125414385984723 22.6038869172000005 O
atom 4.8909000000000020 12.2363038701780127 22.6038869172000005 O
atom -1.6303000000000010 6.5887790070189292 22.6038869172000005 O
atom 3.2606000000000002 9.4125414385984723 22.6038869172000005 O
atom 14.6726999999999972 0.9412541438598472 22.6038869172000005 O
atom 1.6302999999999976 0.9412541438598472 22.6038869172000005 O
atom -1.6302999999999999 12.2363038701780127 22.6038869172000005 O
atom 13.0423999999999971 3.7650165754393883 22.6038869172000005 O
atom 1.6302999999999994 12.2363038701780127 22.6038869172000005 O
atom 3.2605999999999984 3.7650165754393883 22.6038869172000005 O
atom 11.4120999999999988 6.5887790070189292 22.6038869172000005 O
atom -4.8908999999999994 12.2363038701780127 22.6038869172000005 O
atom 11.4120999999999970 0.9412541438598472 22.6038869172000005 O
atom 9.7817999999999987 9.4125414385984723 22.6038869172000005 O
atom 8.1514999999999969 0.9412541438598472 22.6038869172000005 O
atom -0.0000000000000017 3.7650165754393883 22.6038869172000005 O
atom 8.1515000000000004 12.2363038701780127 22.6038869172000005 O
atom 4.8908999999999994 10.3537955824583161 21.9749580828000006 Zn
atom 6.5211999999999986 1.8825082877196944 21.9749580828000006 Zn
atom -6.5211999999999994 13.1775580140378583 21.9749580828000006 Zn
atom 0.0000000000000026 13.1775580140378583 21.9749580828000006 Zn
atom 3.2605999999999993 13.1775580140378583 21.9749580828000006 Zn
atom -4.8909000000000002 10.3537955824583161 21.9749580828000006 Zn
atom -1.6303000000000003 10.3537955824583161 21.9749580828000006 Zn
atom 4.8908999999999994 4.7062707192992361 21.9749580828000006 Zn
atom 13.0423999999999989 1.8825082877196944 21.9749580828000006 Zn
atom 9.7817999999999987 1.8825082877196944 21.9749580828000006 Zn
atom 1.6302999999999988 4.7062707192992361 21.9749580828000006 Zn
atom -1.6303000000000014 4.7062707192992361 21.9749580828000006 Zn
atom 11.4120999999999988 4.7062707192992361 21.9749580828000006 Zn
atom -0.0000000000000021 1.8825082877196944 21.9749580828000006 Zn
atom 8.1514999999999986 4.7062707192992361 21.9749580828000006 Zn
atom 3.2605999999999997 7.5300331508787766 21.9749580828000006 Zn
atom 9.7818000000000005 7.5300331508787766 21.9749580828000006 Zn
atom -3.2605999999999993 13.1775580140378583 21.9749580828000006 Zn
atom 3.2605999999999979 1.8825082877196944 21.9749580828000006 Zn
atom 6.5212000000000003 7.5300331508787766 21.9749580828000006 Zn
atom 8.1515000000000004 10.3537955824583161 21.9749580828000006 Zn
atom -0.0000000000000005 7.5300331508787766 21.9749580828000006 Zn
atom 1.6302999999999999 10.3537955824583161 21.9749580828000006 Zn
atom -3.2606000000000011 7.5300331508787766 21.9749580828000006 Zn
atom 6.5211999999999994 13.1775580140378583 21.9749580828000006 Zn
atom 3.2605999999999997 7.5300331508787766 19.9816019172000026 O
atom 1.6302999999999988 4.7062707192992361 19.9816019172000026 O
atom -4.8909000000000002 10.3537955824583161 19.9816019172000026 O
atom 6.5211999999999986 1.8825082877196944 19.9816019172000026 O
atom 13.0423999999999971 1.8825082877196944 19.9816019172000026 O
atom 8.1514999999999969 4.7062707192992361 19.9816019172000026 O
atom -1.6303000000000003 10.3537955824583161 19.9816019172000026 O
atom 1.6302999999999999 10.3537955824583161 19.9816019172000026 O
atom 3.2605999999999979 1.8825082877196944 19.9816019172000026 O
atom 11.4120999999999970 4.7062707192992361 19.9816019172000026 O
atom -6.5211999999999994 13.1775580140378583 19.9816019172000026 O
atom 6.5212000000000003 7.5300331508787766 19.9816019172000026 O
atom -1.6303000000000016 4.7062707192992361 19.9816019172000026 O
atom 4.8908999999999994 4.7062707192992361 19.9816019172000026 O
atom 9.7817999999999987 7.5300331508787766 19.9816019172000026 O
atom 0.0000000000000026 13.1775580140378583 19.9816019172000026 O
atom -0.0000000000000013 7.5300331508787766 19.9816019172000026 O
atom 4.8908999999999994 10.3537955824583161 19.9816019172000026 O
atom -3.2605999999999993 13.1775580140378583 19.9816019172000026 O
atom 8.1514999999999986 10.3537955824583161 19.9816019172000026 O
atom -3.2606000000000011 7.5300331508787766 19.9816019172000026 O
atom -0.0000000000000024 1.8825082877196944 19.9816019172000026 O
atom 9.7817999999999969 1.8825082877196944 19.9816019172000026 O
atom 3.2605999999999993 13.1775580140378583 19.9816019172000026 O
atom 6.5211999999999994 13.1775580140378583 19.9816019172000026 O
atom 14.6726999999999972 0.9412541438598481 19.3526730828000026 Zn
atom 1.6302999999999976 0.9412541438598481 19.3526730828000026 Zn
atom 1.6302999999999994 12.2363038701780127 19.3526730828000026 Zn
atom 8.1514999999999986 6.5887790070189292 19.3526730828000026 Zn
atom -0.0000000000000009 9.4125414385984723 19.3526730828000026 Zn
atom -3.2606000000000011 9.4125414385984723 19.3526730828000026 Zn
atom 13.0423999999999971 3.7650165754393883 19.3526730828000026 Zn
atom 4.8909000000000002 6.5887790070189292 19.3526730828000026 Zn
atom 8.1514999999999969 0.9412541438598481 19.3526730828000026 Zn
atom -1.6303000000000010 6.5887790070189292 19.3526730828000026 Zn
atom 6.5211999999999986 9.4125414385984723 19.3526730828000026 Zn
atom 11.4120999999999970 0.9412541438598481 19.3526730828000026 Zn
atom 11.4120999999999988 6.5887790070189292 19.3526730828000026 Zn
atom 1.6302999999999983 6.5887790070189292 19.3526730828000026 Zn
atom -4.8908999999999994 12.2363038701780127 19.3526730828000026 Zn
atom 3.2605999999999984 3.7650165754393883 19.3526730828000026 Zn
atom 3.2606000000000002 9.4125414385984723 19.3526730828000026 Zn
atom 4.8909000000000020 12.2363038701780127 19.3526730828000026 Zn
atom 9.7817999999999987 9.4125414385984723 19.3526730828000026 Zn
atom -1.6302999999999999 12.2363038701780127 19.3526730828000026 Zn
atom 9.7817999999999969 3.7650165754393883 19.3526730828000026 Zn
atom 6.5211999999999994 3.7650165754393883 19.3526730828000026 Zn
atom 4.8908999999999976 0.9412541438598481 19.3526730828000026 Zn
atom -0.0000000000000017 3.7650165754393883 19.3526730828000026 Zn
atom 8.1515000000000004 12.2363038701780127 19.3526730828000026 Zn
atom 11.4120999999999988 0.9412541438598483 17.3593169172000010 O
atom 6.5211999999999994 3.7650165754393883 17.3593169172000010 O
atom 3.2606000000000002 9.4125414385984723 17.3593169172000010 O
atom 13.0423999999999971 3.7650165754393883 17.3593169172000010 O
atom 6.5212000000000003 9.4125414385984723 17.3593169172000010 O
atom -0.0000000000000001 9.4125414385984723 17.3593169172000010 O
atom 4.8908999999999985 0.9412541438598483 17.3593169172000010 O
atom 1.6302999999999985 6.5887790070189300 17.3593169172000010 O
atom 3.2605999999999993 3.7650165754393883 17.3593169172000010 O
atom 9.7817999999999969 3.7650165754393883 17.3593169172000010 O
atom 11.4120999999999988 6.5887790070189300 17.3593169172000010 O
atom 8.1514999999999986 0.9412541438598483 17.3593169172000010 O
atom 4.8909000000000020 12.2363038701780127 17.3593169172000010 O
atom -3.2606000000000006 9.4125414385984723 17.3593169172000010 O
atom 1.6303000000000012 12.2363038701780127 17.3593169172000010 O
atom 4.8909000000000002 6.5887790070189300 17.3593169172000010 O
atom 1.6302999999999981 0.9412541438598483 17.3593169172000010 O
atom 9.7818000000000005 9.4125414385984723 17.3593169172000010 O
atom -0.0000000000000013 3.7650165754393883 17.3593169172000010 O
atom 8.1514999999999986 6.5887790070189300 17.3593169172000010 O
atom 14.6727000000000025 0.9412541438598483 17.3593169172000010 O
atom -1.6302999999999999 12.2363038701780127 17.3593169172000010 O
atom -4.8908999999999994 12.2363038701780127 17.3593169172000010 O
atom -1.6303000000000007 6.5887790070189300 17.3593169172000010 O
atom 8.1515000000000004 12.2363038701780127 17.3593169172000010 O
atom 11.4120999999999988 4.7062707192992361 16.7303880828000011 Zn
atom 8.1514999999999986 4.7062707192992361 16.7303880828000011 Zn
atom 0.0000000000000026 13.1775580140378583 16.7303880828000011 Zn
atom -1.6303000000000003 10.3537955824583161 16.7303880828000011 Zn
atom -0.0000000000000005 7.5300331508787766 16.7303880828000011 Zn
atom -1.6303000000000014 4.7062707192992361 16.7303880828000011 Zn
atom 3.2605999999999993 13.1775580140378583 16.7303880828000011 Zn
atom 4.8908999999999994 4.7062707192992361 16.7303880828000011 Zn
atom 9.7818000000000005 7.5300331508787766 16.7303880828000011 Zn
atom -6.5211999999999994 13.1775580140378583 16.7303880828000011 Zn
atom -4.8909000000000002 10.3537955824583161 16.7303880828000011 Zn
atom 6.5212000000000021 7.5300331508787766 16.7303880828000011 Zn
atom 1.6302999999999999 10.3537955824583161 16.7303880828000011 Zn
atom 9.7817999999999987 1.8825082877196946 16.7303880828000011 Zn
atom -0.0000000000000019 1.8825082877196946 16.7303880828000011 Zn
atom 13.0423999999999989 1.8825082877196946 16.7303880828000011 Zn
atom 8.1515000000000004 10.3537955824583161 16.7303880828000011 Zn
atom 6.5211999999999986 1.8825082877196946 16.7303880828000011 Zn
atom 3.2605999999999979 1.8825082877196946 16.7303880828000011 Zn
atom -3.2606000000000011 7.5300331508787766 16.7303880828000011 Zn
atom -3.2605999999999993 13.1775580140378583 16.7303880828000011 Zn
atom 4.8908999999999994 10.3537955824583161 16.7303880828000011 Zn
atom 3.2606000000000015 7.5300331508787766 16.7303880828000011 Zn
atom 1.6302999999999988 4.7062707192992361 16.7303880828000011 Zn
atom 6.5211999999999994 13.1775580140378583 16.7303880828000011 Zn
atom -1.6302999999999994 10.3537955824583161 14.7370319171999977 O
atom 3.2606000000000011 13.1775580140378583 14.7370319171999977 O
atom 9.7817999999999987 1.8825082877196955 14.7370319171999977 O
atom 6.5212000000000021 7.5300331508787766 14.7370319171999977 O
atom -0.0000000000000017 1.8825082877196955 14.7370319171999977 O
atom -1.6303000000000010 4.7062707192992361 14.7370319171999977 O
atom 9.7818000000000005 7.5300331508787766 14.7370319171999977 O
atom 3.2606000000000015 7.5300331508787766 14.7370319171999977 O
atom 3.2605999999999984 1.8825082877196955 14.7370319171999977 O
atom -4.8909000000000002 10.3537955824583161 14.7370319171999977 O
atom -6.5211999999999994 13.1775580140378583 14.7370319171999977 O
atom 13.0423999999999989 1.8825082877196955 14.7370319171999977 O
atom 0.0000000000000026 13.1775580140378583 14.7370319171999977 O
atom 4.8909000000000011 4.7062707192992361 14.7370319171999977 O
atom 4.8908999999999994 10.3537955824583161 14.7370319171999977 O
atom 8.1515000000000004 10.3537955824583161 14.7370319171999977 O
atom 8.1514999999999986 4.7062707192992361 14.7370319171999977 O
atom 1.6302999999999996 4.7062707192992361 14.7370319171999977 O
atom -3.2606000000000006 7.5300331508787766 14.7370319171999977 O
atom 6.5212000000000003 1.8825082877196955 14.7370319171999977 O
atom -0.0000000000000005 7.5300331508787766 14.7370319171999977 O
atom 11.4120999999999988 4.7062707192992361 14.7370319171999977 O
atom 1.6303000000000025 10.3537955824583161 14.7370319171999977 O
atom -3.2605999999999993 13.1775580140378583 14.7370319171999977 O
atom 6.5211999999999994 13.1775580140378583 14.7370319171999977 O
atom 1.6303000000000012 12.2363038701780127 14.1081030827999996 Zn
atom -1.6302999999999999 12.2363038701780127 14.1081030827999996 Zn
atom -4.8908999999999994 12.2363038701780127 14.1081030827999996 Zn
atom 1.6302999999999981 0.9412541438598483 14.1081030827999996 Zn
atom 11.4120999999999988 6.5887790070189300 14.1081030827999996 Zn
atom 9.7817999999999969 3.7650165754393887 14.1081030827999996 Zn
atom -1.6303000000000012 6.5887790070189300 14.1081030827999996 Zn
atom 14.6726999999999972 0.9412541438598483 14.1081030827999996 Zn
atom 6.5212000000000003 9.4125414385984723 14.1081030827999996 Zn
atom 3.2606000000000002 9.4125414385984723 14.1081030827999996 Zn
atom 3.2605999999999988 3.7650165754393887 14.1081030827999996 Zn
atom -3.2606000000000006 9.4125414385984723 14.1081030827999996 Zn
atom -0.0000000000000017 3.7650165754393887 14.1081030827999996 Zn
atom 4.8909000000000002 6.5887790070189300 14.1081030827999996 Zn
atom 9.7817999999999987 9.4125414385984723 14.1081030827999996 Zn
atom 11.4120999999999970 0.9412541438598483 14.1081030827999996 Zn
atom 1.6302999999999985 6.5887790070189300 14.1081030827999996 Zn
atom 4.8908999999999985 0.9412541438598483 14.1081030827999996 Zn
atom 13.0423999999999971 3.7650165754393887 14.1081030827999996 Zn
atom 8.1514999999999986 6.5887790070189300 14.1081030827999996 Zn
atom 4.8909000000000020 12.2363038701780127 14.1081030827999996 Zn
atom 6.5211999999999994 3.7650165754393887 14.1081030827999996 Zn
atom -0.0000000000000001 9.4125414385984723 14.1081030827999996 Zn
atom 8.1514999999999969 0.9412541438598483 14.1081030827999996 Zn
atom 8.1515000000000004 12.2363038701780127 14.1081030827999996 Zn
atom 6.5211999999999986 9.4125414385984723 12.1147469172000015 O
atom 6.5211999999999994 3.7650165754393887 12.1147469172000015 O
atom 11.4120999999999988 6.5887790070189300 12.1147469172000015 O
atom 14.6727000000000025 0.9412541438598487 12.1147469172000015 O
atom 8.1514999999999986 0.9412541438598487 12.1147469172000015 O
atom 11.4120999999999988 0.9412541438598487 12.1147469172000015 O
atom 3.2605999999999997 3.7650165754393887 12.1147469172000015 O
atom -4.8908999999999994 12.2363038701780145 12.1147469172000015 O
atom 4.8908999999999985 0.9412541438598487 12.1147469172000015 O
atom 1.6302999999999981 0.9412541438598487 12.1147469172000015 O
atom 8.1514999999999986 6.5887790070189300 12.1147469172000015 O
atom 1.6303000000000003 12.2363038701780145 12.1147469172000015 O
atom 1.6302999999999985 6.5887790070189300 12.1147469172000015 O
atom 9.7818000000000040 9.4125414385984723 12.1147469172000015 O
atom 4.8909000000000011 12.2363038701780145 12.1147469172000015 O
atom 13.0423999999999971 3.7650165754393887 12.1147469172000015 O
atom -3.2606000000000006 9.4125414385984723 12.1147469172000015 O
atom -0.0000000000000013 3.7650165754393887 12.1147469172000015 O
atom 3.2606000000000002 9.4125414385984723 12.1147469172000015 O
atom -0.0000000000000001 9.4125414385984723 12.1147469172000015 O
atom 9.7817999999999969 3.7650165754393887 12.1147469172000015 O
atom -1.6303000000000007 6.5887790070189300 12.1147469172000015 O
atom 4.8909000000000002 6.5887790070189300 12.1147469172000015 O
atom -1.6302999999999999 12.2363038701780145 12.1147469172000015 O
atom 8.1515000000000004 12.2363038701780145 12.1147469172000015 O
atom 9.7818000000000005 7.5300331508787766 11.4858180828000016 Zn
atom -3.2605999999999993 13.1775580140378583 11.4858180828000016 Zn
atom -1.6303000000000010 4.7062707192992361 11.4858180828000016 Zn
atom 6.5212000000000021 7.5300331508787766 11.4858180828000016 Zn
atom 1.6303000000000025 10.3537955824583161 11.4858180828000016 Zn
atom 6.5212000000000003 1.8825082877196959 11.4858180828000016 Zn
atom 3.2606000000000015 7.5300331508787766 11.4858180828000016 Zn
atom 4.8909000000000011 4.7062707192992361 11.4858180828000016 Zn
atom 3.2606000000000011 13.1775580140378583 11.4858180828000016 Zn
atom -0.0000000000000017 1.8825082877196959 11.4858180828000016 Zn
atom 8.1514999999999986 4.7062707192992361 11.4858180828000016 Zn
atom 11.4120999999999988 4.7062707192992361 11.4858180828000016 Zn
atom 8.1515000000000004 10.3537955824583161 11.4858180828000016 Zn
atom -0.0000000000000005 7.5300331508787766 11.4858180828000016 Zn
atom -6.5211999999999994 13.1775580140378583 11.4858180828000016 Zn
atom -4.8909000000000002 10.3537955824583161 11.4858180828000016 Zn
atom 1.6302999999999996 4.7062707192992361 11.4858180828000016 Zn
atom 9.7817999999999987 1.8825082877196959 11.4858180828000016 Zn
atom 4.8908999999999994 10.3537955824583161 11.4858180828000016 Zn
atom -1.6302999999999994 10.3537955824583161 11.4858180828000016 Zn
atom 3.2605999999999979 1.8825082877196959 11.4858180828000016 Zn
atom -3.2606000000000006 7.5300331508787766 11.4858180828000016 Zn
atom 13.0423999999999989 1.8825082877196959 11.4858180828000016 Zn
atom 0.0000000000000026 13.1775580140378583 11.4858180828000016 Zn
atom 6.5211999999999994 13.1775580140378583 11.4858180828000016 Zn
