#=======================================================
# FHI-aims file: ./geometry.in
# Created using the Atomic Simulation Environment (ASE)
# Thu Mar  7 14:45:53 2024
#=======================================================
lattice_vector 15.8217299999999987 0.0000000000000000 0.0000000000000000 
lattice_vector 0.0000000000000000 17.0018099999999990 0.0000000000000000 
lattice_vector 0.0000000000000000 0.0000000000000000 26.1759999999999984 
atom_frac 0.1675633333333333 0.3055566666666667 0.3437500000000000 Zn
    constrain_relaxation .true.
atom_frac 0.0008966666666667 0.1944466666666667 0.3437500000000000 Zn
    constrain_relaxation .true.
atom_frac 0.0382700000000000 0.3055633333333334 0.3437500000000000 O
    constrain_relaxation .true.
atom_frac 0.2049366666666667 0.1944466666666667 0.3437500000000000 O
    constrain_relaxation .true.
atom_frac 0.1675633333333333 0.1388900000000000 0.4062499999999999 Zn
    constrain_relaxation .true.
atom_frac 0.0008966666666667 0.0277800000000000 0.4062499999999999 Zn
    constrain_relaxation .true.
atom_frac 0.0382700000000000 0.1388966666666667 0.4062499999999999 O
    constrain_relaxation .true.
atom_frac 0.2049366666666667 0.0277800000000000 0.4062499999999999 O
    constrain_relaxation .true.
atom_frac 0.1675633333333333 0.3055566666666667 0.4687500000000000 Zn
    constrain_relaxation .true.
atom_frac 0.0008966666666667 0.1944466666666667 0.4687500000000000 Zn
    constrain_relaxation .true.
atom_frac 0.0382700000000000 0.3055633333333334 0.4687500000000000 O
    constrain_relaxation .true.
atom_frac 0.2049366666666667 0.1944466666666667 0.4687500000000000 O
    constrain_relaxation .true.
atom_frac 0.1660009001384612 0.1380015662312124 0.5300074754626627 Zn
atom_frac -0.0009004922375818 0.0283111435148264 0.5299829801659245 Zn
atom_frac 0.0396300937830042 0.1387776137444101 0.5308058112522853 O
atom_frac 0.2058898082351784 0.0270188325953249 0.5310740157052998 O
atom_frac 0.1699584355769957 0.3038075677890052 0.5959588849080845 Zn
atom_frac 0.0018002376122651 0.1955219513675039 0.5945336947171439 Zn
atom_frac 0.0423779028625443 0.3055244659793604 0.5933499473935893 O
atom_frac 0.2065667340782853 0.1924325324757988 0.5931456396875880 O
atom_frac 0.1583394039126377 0.1254660155612785 0.6462664965929434 Zn
atom_frac -0.0084853036675517 0.0391473821682492 0.6459852676255277 Zn
atom_frac 0.0421000172010052 0.1381428466213886 0.6541354528235023 O
atom_frac 0.2084206127923226 0.0262147328754458 0.6536697310504351 O
atom_frac 0.1675633333333333 0.6388900000000000 0.3437500000000000 Zn
    constrain_relaxation .true.
atom_frac 0.0008966666666667 0.5277800000000000 0.3437500000000000 Zn
    constrain_relaxation .true.
atom_frac 0.0382700000000000 0.6388966666666667 0.3437500000000000 O
    constrain_relaxation .true.
atom_frac 0.2049366666666667 0.5277800000000000 0.3437500000000000 O
    constrain_relaxation .true.
atom_frac 0.1675633333333333 0.4722233333333334 0.4062499999999999 Zn
    constrain_relaxation .true.
atom_frac 0.0008966666666667 0.3611133333333334 0.4062499999999999 Zn
    constrain_relaxation .true.
atom_frac 0.0382700000000000 0.4722300000000001 0.4062499999999999 O
    constrain_relaxation .true.
atom_frac 0.2049366666666667 0.3611133333333334 0.4062499999999999 O
    constrain_relaxation .true.
atom_frac 0.1675633333333333 0.6388900000000000 0.4687500000000000 Zn
    constrain_relaxation .true.
atom_frac 0.0008966666666667 0.5277800000000000 0.4687500000000000 Zn
    constrain_relaxation .true.
atom_frac 0.0382700000000000 0.6388966666666667 0.4687500000000000 O
    constrain_relaxation .true.
atom_frac 0.2049366666666667 0.5277800000000000 0.4687500000000000 O
    constrain_relaxation .true.
atom_frac 0.1656140544902349 0.4713092649510278 0.5298785025137164 Zn
atom_frac 0.0015492168917153 0.3612789101691011 0.5304629115868288 Zn
atom_frac 0.0391993453743608 0.4726478535602498 0.5307909404946143 O
atom_frac 0.2050783116352429 0.3605200127295886 0.5310634226456430 O
atom_frac 0.1667600656855351 0.6368871116435085 0.5947469743185091 Zn
atom_frac 0.0027100077831763 0.5290969865862485 0.5946478343270992 Zn
atom_frac 0.0402626376406546 0.6394962739482842 0.5930072763712325 O
atom_frac 0.2061622051214982 0.5274444520348363 0.5923585840325519 O
atom_frac 0.1644240481244066 0.4582411235575974 0.6467209845658871 Zn
atom_frac -0.0048973111653133 0.3723141088295228 0.6463707220980760 Zn
atom_frac 0.0461007435249329 0.4715306891955663 0.6533737829710927 O
atom_frac 0.2139815063321406 0.3595959435700020 0.6546695850780574 O
atom_frac 0.1675633333333333 0.9722233333333334 0.3437500000000000 Zn
    constrain_relaxation .true.
atom_frac 0.0008966666666667 0.8611133333333334 0.3437500000000000 Zn
    constrain_relaxation .true.
atom_frac 0.0382700000000000 0.9722300000000000 0.3437500000000000 O
    constrain_relaxation .true.
atom_frac 0.2049366666666667 0.8611133333333334 0.3437500000000000 O
    constrain_relaxation .true.
atom_frac 0.1675633333333333 0.8055566666666667 0.4062499999999999 Zn
    constrain_relaxation .true.
atom_frac 0.0008966666666667 0.6944466666666668 0.4062499999999999 Zn
    constrain_relaxation .true.
atom_frac 0.0382700000000000 0.8055633333333333 0.4062499999999999 O
    constrain_relaxation .true.
atom_frac 0.2049366666666667 0.6944466666666668 0.4062499999999999 O
    constrain_relaxation .true.
atom_frac 0.1675633333333333 0.9722233333333334 0.4687500000000000 Zn
    constrain_relaxation .true.
atom_frac 0.0008966666666667 0.8611133333333334 0.4687500000000000 Zn
    constrain_relaxation .true.
atom_frac 0.0382700000000000 0.9722300000000000 0.4687500000000000 O
    constrain_relaxation .true.
atom_frac 0.2049366666666667 0.8611133333333334 0.4687500000000000 O
    constrain_relaxation .true.
atom_frac 0.1660470565455609 0.8043542541650225 0.5299941314487242 Zn
atom_frac -0.0004478102404748 0.6949265207957194 0.5300941052276320 Zn
atom_frac 0.0393511197580638 0.8054997422931225 0.5309457648701812 O
atom_frac 0.2062279176049368 0.6938914019600513 0.5311172181469551 O
atom_frac 0.1662756436445965 0.9695071722742769 0.5942948535056281 Zn
atom_frac -0.0000114864999444 0.8622360576456812 0.5945761046870892 Zn
atom_frac 0.0401708685200367 0.9722181049854691 0.5927931596973351 O
atom_frac 0.2074232925374607 0.8597050950544837 0.5930425833178106 O
atom_frac 0.1590947833164613 0.7928400283170276 0.6461052099279477 Zn
atom_frac -0.0082561648178842 0.7062912300506982 0.6461807700605862 Zn
atom_frac 0.0425688601937980 0.8052914833735416 0.6536381755356370 O
atom_frac 0.2087089165418112 0.6933548619034954 0.6544369967177717 O
atom_frac 0.5008966666666668 0.3055566666666667 0.3437500000000000 Zn
    constrain_relaxation .true.
atom_frac 0.3342300000000000 0.1944466666666667 0.3437500000000000 Zn
    constrain_relaxation .true.
atom_frac 0.3716033333333334 0.3055633333333334 0.3437500000000000 O
    constrain_relaxation .true.
atom_frac 0.5382700000000000 0.1944466666666667 0.3437500000000000 O
    constrain_relaxation .true.
atom_frac 0.5008966666666668 0.1388900000000000 0.4062499999999999 Zn
    constrain_relaxation .true.
atom_frac 0.3342300000000000 0.0277800000000000 0.4062499999999999 Zn
    constrain_relaxation .true.
atom_frac 0.3716033333333334 0.1388966666666667 0.4062499999999999 O
    constrain_relaxation .true.
atom_frac 0.5382700000000000 0.0277800000000000 0.4062499999999999 O
    constrain_relaxation .true.
atom_frac 0.5008966666666668 0.3055566666666667 0.4687500000000000 Zn
    constrain_relaxation .true.
atom_frac 0.3342300000000000 0.1944466666666667 0.4687500000000000 Zn
    constrain_relaxation .true.
atom_frac 0.3716033333333334 0.3055633333333334 0.4687500000000000 O
    constrain_relaxation .true.
atom_frac 0.5382700000000000 0.1944466666666667 0.4687500000000000 O
    constrain_relaxation .true.
atom_frac 0.4988183794069999 0.1359819890565513 0.5290428944805091 Zn
atom_frac 0.3321310587662428 0.0272264689206968 0.5304438514352465 Zn
atom_frac 0.3727109234144581 0.1374586901409019 0.5306589804753893 O
atom_frac 0.5398895257958151 0.0254071568807887 0.5312881297899039 O
atom_frac 0.4947698933928756 0.2987603730920161 0.5887918084026360 Zn
atom_frac 0.3324150086593364 0.1940174365431924 0.5943784240372807 Zn
atom_frac 0.3721685422050007 0.3027907364245128 0.5925457883868093 O
atom_frac 0.5412105957957029 0.1911444103817236 0.5920196175555885 O
atom_frac 0.4917918204804903 0.1256718091431444 0.6456640119624875 Zn
atom_frac 0.3250760993105566 0.0375084538448249 0.6462434201584837 Zn
atom_frac 0.3750831914182229 0.1371675663480011 0.6542538134023511 O
atom_frac 0.5423151615666907 0.0261160956819073 0.6536888885705529 O
atom_frac 0.5008966666666668 0.6388900000000000 0.3437500000000000 Zn
    constrain_relaxation .true.
atom_frac 0.3342300000000000 0.5277800000000000 0.3437500000000000 Zn
    constrain_relaxation .true.
atom_frac 0.3716033333333334 0.6388966666666667 0.3437500000000000 O
    constrain_relaxation .true.
atom_frac 0.5382700000000000 0.5277800000000000 0.3437500000000000 O
    constrain_relaxation .true.
atom_frac 0.5008966666666668 0.4722233333333334 0.4062499999999999 Zn
    constrain_relaxation .true.
atom_frac 0.3342300000000000 0.3611133333333334 0.4062499999999999 Zn
    constrain_relaxation .true.
atom_frac 0.3716033333333334 0.4722300000000001 0.4062499999999999 O
    constrain_relaxation .true.
atom_frac 0.5382700000000000 0.3611133333333334 0.4062499999999999 O
    constrain_relaxation .true.
atom_frac 0.5008966666666668 0.6388900000000000 0.4687500000000000 Zn
    constrain_relaxation .true.
atom_frac 0.3342300000000000 0.5277800000000000 0.4687500000000000 Zn
    constrain_relaxation .true.
atom_frac 0.3716033333333334 0.6388966666666667 0.4687500000000000 O
    constrain_relaxation .true.
atom_frac 0.5382700000000000 0.5277800000000000 0.4687500000000000 O
    constrain_relaxation .true.
atom_frac 0.4984061776059509 0.4707385260730028 0.5297093213011966 Zn
atom_frac 0.3312908698035743 0.3609206439627837 0.5312932203086002 Zn
atom_frac 0.3728561475419304 0.4713484689062890 0.5290853074887976 O
atom_frac 0.5408683426380347 0.3604426634978299 0.5295661508471977 O
atom_frac 0.4990796156182875 0.6364270669821263 0.5946528887877413 Zn
atom_frac 0.3322991922410153 0.5278411639111067 0.5922661527409788 Zn
atom_frac 0.3746312411058647 0.6385170983344175 0.5931753027975770 O
atom_frac 0.5431873126189442 0.5286486176520367 0.5904346723231871 O
atom_frac 0.4992795813492450 0.4687256092587423 0.6482294459769555 Zn
atom_frac 0.3366636429572889 0.3620051853290800 0.6579320316510330 Zn
atom_frac 0.3775877969277328 0.4673035667619997 0.6468214692866336 O
atom_frac 0.5474194015955791 0.3597023385063160 0.6429042336771618 O
atom_frac 0.5008966666666668 0.9722233333333334 0.3437500000000000 Zn
    constrain_relaxation .true.
atom_frac 0.3342300000000000 0.8611133333333334 0.3437500000000000 Zn
    constrain_relaxation .true.
atom_frac 0.3716033333333334 0.9722300000000000 0.3437500000000000 O
    constrain_relaxation .true.
atom_frac 0.5382700000000000 0.8611133333333334 0.3437500000000000 O
    constrain_relaxation .true.
atom_frac 0.5008966666666668 0.8055566666666667 0.4062499999999999 Zn
    constrain_relaxation .true.
atom_frac 0.3342300000000000 0.6944466666666668 0.4062499999999999 Zn
    constrain_relaxation .true.
atom_frac 0.3716033333333334 0.8055633333333333 0.4062499999999999 O
    constrain_relaxation .true.
atom_frac 0.5382700000000000 0.6944466666666668 0.4062499999999999 O
    constrain_relaxation .true.
atom_frac 0.5008966666666668 0.9722233333333334 0.4687500000000000 Zn
    constrain_relaxation .true.
atom_frac 0.3342300000000000 0.8611133333333334 0.4687500000000000 Zn
    constrain_relaxation .true.
atom_frac 0.3716033333333334 0.9722300000000000 0.4687500000000000 O
    constrain_relaxation .true.
atom_frac 0.5382700000000000 0.8611133333333334 0.4687500000000000 O
    constrain_relaxation .true.
atom_frac 0.4988623666387061 0.8043792009801262 0.5301850505318586 Zn
atom_frac 0.3327604209569417 0.6945182054434861 0.5306225666244222 Zn
atom_frac 0.3730209268416471 0.8055492626869331 0.5308505843498773 O
atom_frac 0.5396124799309665 0.6940966227661147 0.5320986712021758 O
atom_frac 0.4998617179819803 0.9686014192029280 0.5946921555078770 Zn
atom_frac 0.3332066360331978 0.8604664207800916 0.5950392352063819 Zn
atom_frac 0.3741439435174763 0.9707195870051779 0.5932611626713012 O
atom_frac 0.5407194757117942 0.8579145124521874 0.5943001503456637 O
atom_frac 0.4920952262859507 0.7947461824192457 0.6479267264560509 Zn
atom_frac 0.3263713576309015 0.7012026976983351 0.6489632854160111 Zn
atom_frac 0.3759009424370126 0.8021685261036318 0.6540954662419763 O
atom_frac 0.5422889541148791 0.6932978311855669 0.6569466438056109 O
atom_frac 0.8342300000000000 0.3055566666666667 0.3437500000000000 Zn
    constrain_relaxation .true.
atom_frac 0.6675633333333334 0.1944466666666667 0.3437500000000000 Zn
    constrain_relaxation .true.
atom_frac 0.7049366666666668 0.3055633333333334 0.3437500000000000 O
    constrain_relaxation .true.
atom_frac 0.8716033333333335 0.1944466666666667 0.3437500000000000 O
    constrain_relaxation .true.
atom_frac 0.8342300000000000 0.1388900000000000 0.4062499999999999 Zn
    constrain_relaxation .true.
atom_frac 0.6675633333333334 0.0277800000000000 0.4062499999999999 Zn
    constrain_relaxation .true.
atom_frac 0.7049366666666668 0.1388966666666667 0.4062499999999999 O
    constrain_relaxation .true.
atom_frac 0.8716033333333335 0.0277800000000000 0.4062499999999999 O
    constrain_relaxation .true.
atom_frac 0.8342300000000000 0.3055566666666667 0.4687500000000000 Zn
    constrain_relaxation .true.
atom_frac 0.6675633333333334 0.1944466666666667 0.4687500000000000 Zn
    constrain_relaxation .true.
atom_frac 0.7049366666666668 0.3055633333333334 0.4687500000000000 O
    constrain_relaxation .true.
atom_frac 0.8716033333333335 0.1944466666666667 0.4687500000000000 O
    constrain_relaxation .true.
atom_frac 0.8329660784471734 0.1378432554007892 0.5299440695212383 Zn
atom_frac 0.6661724317389436 0.0278893942015572 0.5302839200918547 Zn
atom_frac 0.7068217102016681 0.1385486335738281 0.5308481399122800 O
atom_frac 0.8726985420772537 0.0270183809775569 0.5311124100271791 O
atom_frac 0.8367093139788948 0.3025705459592000 0.5938435797577961 Zn
atom_frac 0.6665127153709023 0.1949305620750371 0.5939070995545395 Zn
atom_frac 0.7107766391414824 0.3044174511723997 0.5922592348953254 O
atom_frac 0.8752542840669034 0.1929144385354273 0.5929922203776544 O
atom_frac 0.8256359074212720 0.1262526569245353 0.6458208745773958 Zn
atom_frac 0.6587280967416810 0.0391732736202640 0.6461396842566607 Zn
atom_frac 0.7091513097270222 0.1387695049273587 0.6535330062674214 O
atom_frac 0.8752936840452074 0.0266520608541619 0.6537989974595150 O
atom_frac 0.8342300000000000 0.6388900000000000 0.3437500000000000 Zn
    constrain_relaxation .true.
atom_frac 0.6675633333333334 0.5277800000000000 0.3437500000000000 Zn
    constrain_relaxation .true.
atom_frac 0.7049366666666668 0.6388966666666667 0.3437500000000000 O
    constrain_relaxation .true.
atom_frac 0.8716033333333335 0.5277800000000000 0.3437500000000000 O
    constrain_relaxation .true.
atom_frac 0.8342300000000000 0.4722233333333334 0.4062499999999999 Zn
    constrain_relaxation .true.
atom_frac 0.6675633333333334 0.3611133333333334 0.4062499999999999 Zn
    constrain_relaxation .true.
atom_frac 0.7049366666666668 0.4722300000000001 0.4062499999999999 O
    constrain_relaxation .true.
atom_frac 0.8716033333333335 0.3611133333333334 0.4062499999999999 O
    constrain_relaxation .true.
atom_frac 0.8342300000000000 0.6388900000000000 0.4687500000000000 Zn
    constrain_relaxation .true.
atom_frac 0.6675633333333334 0.5277800000000000 0.4687500000000000 Zn
    constrain_relaxation .true.
atom_frac 0.7049366666666668 0.6388966666666667 0.4687500000000000 O
    constrain_relaxation .true.
atom_frac 0.8716033333333335 0.5277800000000000 0.4687500000000000 O
    constrain_relaxation .true.
atom_frac 0.8342880702221460 0.4708915442130005 0.5296975801256333 Zn
atom_frac 0.6664376330788245 0.3613498933420850 0.5302090297647816 Zn
atom_frac 0.7079003366644820 0.4718077760042940 0.5308762388842508 O
atom_frac 0.8744725523234351 0.3606496970682041 0.5310328301048627 O
atom_frac 0.8341517821285149 0.6376475024152647 0.5940291148061350 Zn
atom_frac 0.6670948649497673 0.5296786772952332 0.5926801687345704 Zn
atom_frac 0.7076829806417830 0.6387758282728310 0.5935848346671061 O
atom_frac 0.8750264900328578 0.5276421306663680 0.5928418735629155 O
atom_frac 0.8331823714153954 0.4612021572177836 0.6464506997505315 Zn
atom_frac 0.6660147159790377 0.3651288253816856 0.6483070390516628 Zn
atom_frac 0.7128141143575979 0.4704194654869088 0.6531747093738555 O
atom_frac 0.8774053043681175 0.3603548382077899 0.6536897994229756 O
atom_frac 0.8342300000000000 0.9722233333333334 0.3437500000000000 Zn
    constrain_relaxation .true.
atom_frac 0.6675633333333334 0.8611133333333334 0.3437500000000000 Zn
    constrain_relaxation .true.
atom_frac 0.7049366666666668 0.9722300000000000 0.3437500000000000 O
    constrain_relaxation .true.
atom_frac 0.8716033333333335 0.8611133333333334 0.3437500000000000 O
    constrain_relaxation .true.
atom_frac 0.8342300000000000 0.8055566666666667 0.4062499999999999 Zn
    constrain_relaxation .true.
atom_frac 0.6675633333333334 0.6944466666666668 0.4062499999999999 Zn
    constrain_relaxation .true.
atom_frac 0.7049366666666668 0.8055633333333333 0.4062499999999999 O
    constrain_relaxation .true.
atom_frac 0.8716033333333335 0.6944466666666668 0.4062499999999999 O
    constrain_relaxation .true.
atom_frac 0.8342300000000000 0.9722233333333334 0.4687500000000000 Zn
    constrain_relaxation .true.
atom_frac 0.6675633333333334 0.8611133333333334 0.4687500000000000 Zn
    constrain_relaxation .true.
atom_frac 0.7049366666666668 0.9722300000000000 0.4687500000000000 O
    constrain_relaxation .true.
atom_frac 0.8716033333333335 0.8611133333333334 0.4687500000000000 O
    constrain_relaxation .true.
atom_frac 0.8324798814926848 0.8051686909628176 0.5299938897464218 Zn
atom_frac 0.6655697205008771 0.6949636315426690 0.5302861631928741 Zn
atom_frac 0.7060857327376662 0.8055535197208946 0.5308357287129521 O
atom_frac 0.8730668270933175 0.6942705688037092 0.5307901418044212 O
atom_frac 0.8331900866405654 0.9698915205502318 0.5944215376725499 Zn
atom_frac 0.6667890442024165 0.8614167252928426 0.5946373997117128 Zn
atom_frac 0.7071038930895744 0.9715489052924353 0.5932125926332856 O
atom_frac 0.8736069088433518 0.8599115688723308 0.5931951189605247 O
atom_frac 0.8247787211531504 0.7933273695137046 0.6462822113741949 Zn
atom_frac 0.6632720518270580 0.7010778696732085 0.6503765931511195 Zn
atom_frac 0.7076848960260487 0.8031329830151642 0.6538598642890255 O
atom_frac 0.8753462723257799 0.6935771487349268 0.6539111469498918 O
atom_frac 0.4701214064533318 0.4912912816254777 0.7390251198097435 Pd
atom_frac 0.3223471720821356 0.4550981056369505 0.7565471046105573 Pd
atom_frac 0.3824149755603296 0.3134678422459490 0.7474909961808751 Pd
atom_frac 0.5816422835955004 0.5224116924431313 0.8081317924112178 Pd
atom_frac 0.4953464231743044 0.3836946188538882 0.8119608853465651 Pd
atom_frac 0.4068469200435846 0.5083667286003516 0.8377920550655191 Pd
atom_frac 0.4031742968091694 0.6172921120188144 0.7649432769549244 Pd
atom_frac 0.5582663775697516 0.6195327551804939 0.7233637620817676 Pd
atom_frac 0.5345954210498820 0.3577176527086187 0.7212837104811847 Pd
atom_frac 0.6451926535847726 0.4846691318180563 0.7229657033151674 Pd

