#=======================================================
# FHI-aims file: ./geometry.in
# Created using the Atomic Simulation Environment (ASE)
# Tue Nov 21 16:40:52 2023
#=======================================================
lattice_vector 16.3029000000000011 0.0000000000000000 0.0000000000000000 
lattice_vector -8.1514500000000005 14.1187255999999994 0.0000000000000000 
lattice_vector 0.0000000000000000 0.0000000000000000 29.2228999999999992 
atom_frac 0.0666699993149168 0.9333299986298332 0.3765090440544915 O
atom_frac 0.2666700002635011 0.3333300005270020 0.3765090440544915 O
atom_frac 0.2666699999473062 0.5333299998946123 0.3765090440544915 O
atom_frac 0.2666699993149168 0.9333299986298332 0.3765090440544915 O
atom_frac 0.4666700005796957 0.1333300011593914 0.3765090440544915 O
atom_frac 0.4666700002635010 0.3333300005270020 0.3765090440544915 O
atom_frac 0.4666699999473062 0.5333299998946123 0.3765090440544915 O
atom_frac 0.4666699996311115 0.7333299992622229 0.3765090440544915 O
atom_frac 0.4666699993149168 0.9333299986298332 0.3765090440544915 O
atom_frac 0.6666700005796956 0.1333300011593914 0.3765090440544915 O
atom_frac 0.6666699999473064 0.5333299998946123 0.3765090440544915 O
atom_frac 0.6666699996311115 0.7333299992622229 0.3765090440544915 O
atom_frac 0.6666699993149168 0.9333299986298332 0.3765090440544915 O
atom_frac 0.8666700005796957 0.1333300011593914 0.3765090440544915 O
atom_frac 0.8666700002635011 0.3333300005270020 0.3765090440544915 O
atom_frac 0.8666699999473064 0.5333299998946123 0.3765090440544915 O
atom_frac 0.8666699996311115 0.7333299992622229 0.3765090440544915 O
atom_frac 0.8666699993149168 0.9333299986298332 0.3765090440544915 O
atom_frac 0.5333300000526939 0.4666700001053877 0.3980272760574755 Zn
atom_frac 0.3333300003688887 0.2666700007377773 0.3980272760574755 Zn
atom_frac 0.5333299997364992 0.6666699994729982 0.3980272760574755 Zn
atom_frac 0.1333299997364992 0.6666699994729982 0.3980272760574755 Zn
atom_frac 0.5333299994203045 0.8666699988406087 0.3980272760574755 Zn
atom_frac 0.3333300000526939 0.4666700001053877 0.3980272760574755 Zn
atom_frac 0.7333300006850837 0.0666700013701668 0.3980272760574755 Zn
atom_frac 0.1333300006850834 0.0666700013701668 0.3980272760574755 Zn
atom_frac 0.7333300003688886 0.2666700007377773 0.3980272760574755 Zn
atom_frac 0.3333299997364992 0.6666699994729982 0.3980272760574755 Zn
atom_frac 0.7333300000526939 0.4666700001053877 0.3980272760574755 Zn
atom_frac 0.1333299994203045 0.8666699988406087 0.3980272760574755 Zn
atom_frac 0.7333299997364993 0.6666699994729982 0.3980272760574755 Zn
atom_frac 0.3333299994203045 0.8666699988406087 0.3980272760574755 Zn
atom_frac 0.7333299994203047 0.8666699988406087 0.3980272760574755 Zn
atom_frac 0.1333300000526939 0.4666700001053877 0.3980272760574755 Zn
atom_frac 0.9333300006850834 0.0666700013701668 0.3980272760574755 Zn
atom_frac 0.5333300006850835 0.0666700013701668 0.3980272760574755 Zn
atom_frac 0.9333300003688886 0.2666700007377773 0.3980272760574755 Zn
atom_frac 0.3333300006850834 0.0666700013701668 0.3980272760574755 Zn
atom_frac 0.9333300000526938 0.4666700001053877 0.3980272760574755 Zn
atom_frac 0.5333300003688888 0.2666700007377773 0.3980272760574755 Zn
atom_frac 0.9333299997364992 0.6666699994729982 0.3980272760574755 Zn
atom_frac 0.1333300003688886 0.2666700007377773 0.3980272760574755 Zn
atom_frac 0.9333299994203044 0.8666699988406087 0.3980272760574755 Zn
atom_frac 0.7333300003688886 0.2666700007377773 0.4662431224656006 O
atom_frac 0.3333300000526939 0.4666700001053877 0.4662431224656006 O
atom_frac 0.5333300003688888 0.2666700007377773 0.4662431224656006 O
atom_frac 0.7333300000526939 0.4666700001053877 0.4662431224656006 O
atom_frac 0.1333299997364992 0.6666699994729982 0.4662431224656006 O
atom_frac 0.3333300006850834 0.0666700013701668 0.4662431224656006 O
atom_frac 0.7333299997364993 0.6666699994729982 0.4662431224656006 O
atom_frac 0.5333300000526939 0.4666700001053877 0.4662431224656006 O
atom_frac 0.3333299997364992 0.6666699994729982 0.4662431224656006 O
atom_frac 0.7333299994203047 0.8666699988406087 0.4662431224656006 O
atom_frac 0.1333300000526939 0.4666700001053877 0.4662431224656006 O
atom_frac 0.5333299997364992 0.6666699994729982 0.4662431224656006 O
atom_frac 0.9333300006850834 0.0666700013701668 0.4662431224656006 O
atom_frac 0.1333300006850834 0.0666700013701668 0.4662431224656006 O
atom_frac 0.3333299994203045 0.8666699988406087 0.4662431224656006 O
atom_frac 0.9333300003688886 0.2666700007377773 0.4662431224656006 O
atom_frac 0.5333299994203045 0.8666699988406087 0.4662431224656006 O
atom_frac 0.3333300003688887 0.2666700007377773 0.4662431224656006 O
atom_frac 0.9333300000526938 0.4666700001053877 0.4662431224656006 O
atom_frac 0.1333299994203045 0.8666699988406087 0.4662431224656006 O
atom_frac 0.7333300006850837 0.0666700013701668 0.4662431224656006 O
atom_frac 0.9333299997364992 0.6666699994729982 0.4662431224656006 O
atom_frac 0.5333300006850835 0.0666700013701668 0.4662431224656006 O
atom_frac 0.1333300003688886 0.2666700007377773 0.4662431224656006 O
atom_frac 0.9333299994203044 0.8666699988406087 0.4662431224656006 O
atom_frac 0.6666699996311115 0.7333299992622229 0.4877613544685846 Zn
atom_frac 0.4666700005796957 0.1333300011593914 0.4877613544685846 Zn
atom_frac 0.0666699993149168 0.9333299986298332 0.4877613544685846 Zn
atom_frac 0.4666699993149168 0.9333299986298332 0.4877613544685846 Zn
atom_frac 0.6666699993149168 0.9333299986298332 0.4877613544685846 Zn
atom_frac 0.0666699996311115 0.7333299992622229 0.4877613544685846 Zn
atom_frac 0.2666699996311115 0.7333299992622229 0.4877613544685846 Zn
atom_frac 0.4666700002635010 0.3333300005270020 0.4877613544685846 Zn
atom_frac 0.8666700005796957 0.1333300011593914 0.4877613544685846 Zn
atom_frac 0.6666700005796956 0.1333300011593914 0.4877613544685846 Zn
atom_frac 0.2666700002635011 0.3333300005270020 0.4877613544685846 Zn
atom_frac 0.0666700002635010 0.3333300005270020 0.4877613544685846 Zn
atom_frac 0.8666700002635011 0.3333300005270020 0.4877613544685846 Zn
atom_frac 0.0666700005796957 0.1333300011593914 0.4877613544685846 Zn
atom_frac 0.6666700002635010 0.3333300005270020 0.4877613544685846 Zn
atom_frac 0.4666699999473062 0.5333299998946123 0.4877613544685846 Zn
atom_frac 0.8666699999473064 0.5333299998946123 0.4877613544685846 Zn
atom_frac 0.2666699993149168 0.9333299986298332 0.4877613544685846 Zn
atom_frac 0.2666700005796956 0.1333300011593914 0.4877613544685846 Zn
atom_frac 0.6666699999473064 0.5333299998946123 0.4877613544685846 Zn
atom_frac 0.8666699996311115 0.7333299992622229 0.4877613544685846 Zn
atom_frac 0.2666699999473062 0.5333299998946123 0.4877613544685846 Zn
atom_frac 0.4666699996311115 0.7333299992622229 0.4877613544685846 Zn
atom_frac 0.0666699999473062 0.5333299998946123 0.4877613544685846 Zn
atom_frac 0.8666699993149168 0.9333299986298332 0.4877613544685846 Zn
atom_frac 0.4666699999473062 0.5333299998946123 0.5559772008767099 O
atom_frac 0.2666700002635011 0.3333300005270020 0.5559772008767099 O
atom_frac 0.0666699996311115 0.7333299992622229 0.5559772008767099 O
atom_frac 0.4666700005796957 0.1333300011593914 0.5559772008767099 O
atom_frac 0.8666700005796957 0.1333300011593914 0.5559772008767099 O
atom_frac 0.6666700002635010 0.3333300005270020 0.5559772008767099 O
atom_frac 0.2666699996311115 0.7333299992622229 0.5559772008767099 O
atom_frac 0.4666699996311115 0.7333299992622229 0.5559772008767099 O
atom_frac 0.2666700005796956 0.1333300011593914 0.5559772008767099 O
atom_frac 0.8666700002635011 0.3333300005270020 0.5559772008767099 O
atom_frac 0.0666699993149168 0.9333299986298332 0.5559772008767099 O
atom_frac 0.6666699999473064 0.5333299998946123 0.5559772008767099 O
atom_frac 0.0666700002635010 0.3333300005270020 0.5559772008767099 O
atom_frac 0.4666700002635010 0.3333300005270020 0.5559772008767099 O
atom_frac 0.8666699999473064 0.5333299998946123 0.5559772008767099 O
atom_frac 0.4666699993149168 0.9333299986298332 0.5559772008767099 O
atom_frac 0.2666699999473062 0.5333299998946123 0.5559772008767099 O
atom_frac 0.6666699996311115 0.7333299992622229 0.5559772008767099 O
atom_frac 0.2666699993149168 0.9333299986298332 0.5559772008767099 O
atom_frac 0.8666699996311115 0.7333299992622229 0.5559772008767099 O
atom_frac 0.0666699999473062 0.5333299998946123 0.5559772008767099 O
atom_frac 0.0666700005796957 0.1333300011593914 0.5559772008767099 O
atom_frac 0.6666700005796956 0.1333300011593914 0.5559772008767099 O
atom_frac 0.6666699993149168 0.9333299986298332 0.5559772008767099 O
atom_frac 0.8666699993149168 0.9333299986298332 0.5559772008767099 O
atom_frac 0.9333300006850834 0.0666700013701668 0.5774954328796938 Zn
atom_frac 0.1333300006850834 0.0666700013701668 0.5774954328796938 Zn
atom_frac 0.5333299994203045 0.8666699988406087 0.5774954328796938 Zn
atom_frac 0.7333300000526939 0.4666700001053877 0.5774954328796938 Zn
atom_frac 0.3333299997364992 0.6666699994729982 0.5774954328796938 Zn
atom_frac 0.1333299997364992 0.6666699994729982 0.5774954328796938 Zn
atom_frac 0.9333300003688886 0.2666700007377773 0.5774954328796938 Zn
atom_frac 0.5333300000526939 0.4666700001053877 0.5774954328796938 Zn
atom_frac 0.5333300006850835 0.0666700013701668 0.5774954328796938 Zn
atom_frac 0.1333300000526939 0.4666700001053877 0.5774954328796938 Zn
atom_frac 0.7333299997364993 0.6666699994729982 0.5774954328796938 Zn
atom_frac 0.7333300006850837 0.0666700013701668 0.5774954328796938 Zn
atom_frac 0.9333300000526938 0.4666700001053877 0.5774954328796938 Zn
atom_frac 0.3333300000526939 0.4666700001053877 0.5774954328796938 Zn
atom_frac 0.1333299994203045 0.8666699988406087 0.5774954328796938 Zn
atom_frac 0.3333300003688887 0.2666700007377773 0.5774954328796938 Zn
atom_frac 0.5333299997364992 0.6666699994729982 0.5774954328796938 Zn
atom_frac 0.7333299994203047 0.8666699988406087 0.5774954328796938 Zn
atom_frac 0.9333299997364992 0.6666699994729982 0.5774954328796938 Zn
atom_frac 0.3333299994203045 0.8666699988406087 0.5774954328796938 Zn
atom_frac 0.7333300003688886 0.2666700007377773 0.5774954328796938 Zn
atom_frac 0.5333300003688888 0.2666700007377773 0.5774954328796938 Zn
atom_frac 0.3333300006850834 0.0666700013701668 0.5774954328796938 Zn
atom_frac 0.1333300003688886 0.2666700007377773 0.5774954328796938 Zn
atom_frac 0.9333299994203044 0.8666699988406087 0.5774954328796938 Zn
atom_frac 0.7333300006850837 0.0666700013701668 0.6457112792878188 O
atom_frac 0.5333300003688888 0.2666700007377773 0.6457112792878188 O
atom_frac 0.5333299997364992 0.6666699994729982 0.6457112792878188 O
atom_frac 0.9333300003688886 0.2666700007377773 0.6457112792878188 O
atom_frac 0.7333299997364993 0.6666699994729982 0.6457112792878188 O
atom_frac 0.3333299997364992 0.6666699994729982 0.6457112792878188 O
atom_frac 0.3333300006850834 0.0666700013701668 0.6457112792878188 O
atom_frac 0.3333300000526939 0.4666700001053877 0.6457112792878188 O
atom_frac 0.3333300003688887 0.2666700007377773 0.6457112792878188 O
atom_frac 0.7333300003688886 0.2666700007377773 0.6457112792878188 O
atom_frac 0.9333300000526938 0.4666700001053877 0.6457112792878188 O
atom_frac 0.5333300006850835 0.0666700013701668 0.6457112792878188 O
atom_frac 0.7333299994203047 0.8666699988406087 0.6457112792878188 O
atom_frac 0.1333299997364992 0.6666699994729982 0.6457112792878188 O
atom_frac 0.5333299994203045 0.8666699988406087 0.6457112792878188 O
atom_frac 0.5333300000526939 0.4666700001053877 0.6457112792878188 O
atom_frac 0.1333300006850834 0.0666700013701668 0.6457112792878188 O
atom_frac 0.9333299997364992 0.6666699994729982 0.6457112792878188 O
atom_frac 0.1333300003688886 0.2666700007377773 0.6457112792878188 O
atom_frac 0.7333300000526939 0.4666700001053877 0.6457112792878188 O
atom_frac 0.9333300006850834 0.0666700013701668 0.6457112792878188 O
atom_frac 0.3333299994203045 0.8666699988406087 0.6457112792878188 O
atom_frac 0.1333299994203045 0.8666699988406087 0.6457112792878188 O
atom_frac 0.1333300000526939 0.4666700001053877 0.6457112792878188 O
atom_frac 0.9333299994203044 0.8666699988406087 0.6457112792878188 O
atom_frac 0.8666700002635011 0.3333300005270020 0.6672295112908028 Zn
atom_frac 0.6666700002635010 0.3333300005270020 0.6672295112908028 Zn
atom_frac 0.4666699993149168 0.9333299986298332 0.6672295112908028 Zn
atom_frac 0.2666699996311115 0.7333299992622229 0.6672295112908028 Zn
atom_frac 0.2666699999473062 0.5333299998946123 0.6672295112908028 Zn
atom_frac 0.0666700002635010 0.3333300005270020 0.6672295112908028 Zn
atom_frac 0.6666699993149168 0.9333299986298332 0.6672295112908028 Zn
atom_frac 0.4666700002635010 0.3333300005270020 0.6672295112908028 Zn
atom_frac 0.8666699999473064 0.5333299998946123 0.6672295112908028 Zn
atom_frac 0.0666699993149168 0.9333299986298332 0.6672295112908028 Zn
atom_frac 0.0666699996311115 0.7333299992622229 0.6672295112908028 Zn
atom_frac 0.6666699999473064 0.5333299998946123 0.6672295112908028 Zn
atom_frac 0.4666699996311115 0.7333299992622229 0.6672295112908028 Zn
atom_frac 0.6666700005796956 0.1333300011593914 0.6672295112908028 Zn
atom_frac 0.0666700005796957 0.1333300011593914 0.6672295112908028 Zn
atom_frac 0.8666700005796957 0.1333300011593914 0.6672295112908028 Zn
atom_frac 0.8666699996311115 0.7333299992622229 0.6672295112908028 Zn
atom_frac 0.4666700005796957 0.1333300011593914 0.6672295112908028 Zn
atom_frac 0.2666700005796956 0.1333300011593914 0.6672295112908028 Zn
atom_frac 0.0666699999473062 0.5333299998946123 0.6672295112908028 Zn
atom_frac 0.2666699993149168 0.9333299986298332 0.6672295112908028 Zn
atom_frac 0.6666699996311115 0.7333299992622229 0.6672295112908028 Zn
atom_frac 0.4666699999473062 0.5333299998946123 0.6672295112908028 Zn
atom_frac 0.2666700002635011 0.3333300005270020 0.6672295112908028 Zn
atom_frac 0.8666699993149168 0.9333299986298332 0.6672295112908028 Zn
atom_frac 0.2666699996311115 0.7333299992622229 0.7354453576989280 O
atom_frac 0.6666699993149168 0.9333299986298332 0.7354453576989280 O
atom_frac 0.6666700005796956 0.1333300011593914 0.7354453576989280 O
atom_frac 0.6666699999473064 0.5333299998946123 0.7354453576989280 O
atom_frac 0.0666700005796957 0.1333300011593914 0.7354453576989280 O
atom_frac 0.0666700002635010 0.3333300005270020 0.7354453576989280 O
atom_frac 0.8666699999473064 0.5333299998946123 0.7354453576989280 O
atom_frac 0.4666699999473062 0.5333299998946123 0.7354453576989280 O
atom_frac 0.2666700005796956 0.1333300011593914 0.7354453576989280 O
atom_frac 0.0666699996311115 0.7333299992622229 0.7354453576989280 O
atom_frac 0.0666699993149168 0.9333299986298332 0.7354453576989280 O
atom_frac 0.8666700005796957 0.1333300011593914 0.7354453576989280 O
atom_frac 0.4666699993149168 0.9333299986298332 0.7354453576989280 O
atom_frac 0.4666700002635010 0.3333300005270020 0.7354453576989280 O
atom_frac 0.6666699996311115 0.7333299992622229 0.7354453576989280 O
atom_frac 0.8666699996311115 0.7333299992622229 0.7354453576989280 O
atom_frac 0.6666700002635010 0.3333300005270020 0.7354453576989280 O
atom_frac 0.2666700002635011 0.3333300005270020 0.7354453576989280 O
atom_frac 0.0666699999473062 0.5333299998946123 0.7354453576989280 O
atom_frac 0.4666700005796957 0.1333300011593914 0.7354453576989280 O
atom_frac 0.2666699999473062 0.5333299998946123 0.7354453576989280 O
atom_frac 0.8666700002635011 0.3333300005270020 0.7354453576989280 O
atom_frac 0.4666699996311115 0.7333299992622229 0.7354453576989280 O
atom_frac 0.2666699993149168 0.9333299986298332 0.7354453576989280 O
atom_frac 0.8666699993149168 0.9333299986298332 0.7354453576989280 O
atom_frac 0.9333300000526938 0.4666700001053877 0.7569635897019120 Zn
atom_frac 0.1333300000526939 0.4666700001053877 0.7569635897019120 Zn
atom_frac 0.9333300006850834 0.0666700013701668 0.7569635897019120 Zn
atom_frac 0.5333299997364992 0.6666699994729982 0.7569635897019120 Zn
atom_frac 0.3333300003688887 0.2666700007377773 0.7569635897019120 Zn
atom_frac 0.1333299997364992 0.6666699994729982 0.7569635897019120 Zn
atom_frac 0.1333300003688886 0.2666700007377773 0.7569635897019120 Zn
atom_frac 0.5333300000526939 0.4666700001053877 0.7569635897019120 Zn
atom_frac 0.9333299997364992 0.6666699994729982 0.7569635897019120 Zn
atom_frac 0.7333300006850837 0.0666700013701668 0.7569635897019120 Zn
atom_frac 0.3333300006850834 0.0666700013701668 0.7569635897019120 Zn
atom_frac 0.9333300003688886 0.2666700007377773 0.7569635897019120 Zn
atom_frac 0.7333300000526939 0.4666700001053877 0.7569635897019120 Zn
atom_frac 0.7333299994203047 0.8666699988406087 0.7569635897019120 Zn
atom_frac 0.5333300003688888 0.2666700007377773 0.7569635897019120 Zn
atom_frac 0.3333299997364992 0.6666699994729982 0.7569635897019120 Zn
atom_frac 0.5333300006850835 0.0666700013701668 0.7569635897019120 Zn
atom_frac 0.9333299994203044 0.8666699988406087 0.7569635897019120 Zn
atom_frac 0.3767540967599198 0.3921001004811779 0.2430364102980882 Pd
atom_frac 0.3767540967599198 0.3921001004811779 0.2943660182425427 Pd
atom_frac 0.4562900485670623 0.3125641490512682 0.2943660182425427 Pd
atom_frac 0.4562900481898295 0.5511720033409973 0.2943660182425427 Pd
atom_frac 0.6153619518041145 0.3921001004811779 0.2430364102980882 Pd
atom_frac 0.6153619518041145 0.3921001004811779 0.2943660182425427 Pd
atom_frac 0.5358259999969720 0.4716360519110875 0.2430364102980882 Pd
atom_frac 0.6153619514268817 0.6307079547709068 0.2430364102980882 Pd
atom_frac 0.6153619514268817 0.6307079547709068 0.2943660182425427 Pd
atom_frac 0.6948979032340242 0.5511720033409973 0.2943660182425427 Pd
