#=======================================================
# FHI-aims file: ./geometry.in
# Created using the Atomic Simulation Environment (ASE)
# Mon Nov 27 10:49:33 2023
#=======================================================
lattice_vector 16.3029000000000011 0.0000000000000000 0.0000000000000000 
lattice_vector -8.1514499806691560 14.1187255665179947 0.0000000000000000 
lattice_vector 0.0000000000000000 0.0000000000000000 36.2229000000000028 
atom_frac 0.0666699993149166 0.9333299996574582 0.4003734141523732 O
atom_frac 0.2666700002635009 0.3333300001317506 0.4003734141523732 O
atom_frac 0.2666699999473060 0.5333299999736530 0.4003734141523732 O
atom_frac 0.2666699993149165 0.9333299996574582 0.4003734141523732 O
atom_frac 0.4666700005796955 0.1333300002898478 0.4003734141523732 O
atom_frac 0.4666700002635008 0.3333300001317506 0.4003734141523732 O
atom_frac 0.4666699999473060 0.5333299999736530 0.4003734141523732 O
atom_frac 0.4666699996311113 0.7333299998155558 0.4003734141523732 O
atom_frac 0.4666699993149165 0.9333299996574582 0.4003734141523732 O
atom_frac 0.6666700005796954 0.1333300002898478 0.4003734141523732 O
atom_frac 0.6666699999473061 0.5333299999736530 0.4003734141523732 O
atom_frac 0.6666699996311113 0.7333299998155558 0.4003734141523732 O
atom_frac 0.6666699993149166 0.9333299996574582 0.4003734141523732 O
atom_frac 0.8666700005796955 0.1333300002898478 0.4003734141523732 O
atom_frac 0.8666700002635008 0.3333300001317506 0.4003734141523732 O
atom_frac 0.8666699999473063 0.5333299999736530 0.4003734141523732 O
atom_frac 0.8666699996311112 0.7333299998155558 0.4003734141523732 O
atom_frac 0.8666699993149166 0.9333299996574582 0.4003734141523732 O
atom_frac 0.5333300000526938 0.4666700000263469 0.4177332926270398 Zn
atom_frac 0.3333300003688885 0.2666700001844444 0.4177332926270398 Zn
atom_frac 0.5333299997364991 0.6666699998682495 0.4177332926270398 Zn
atom_frac 0.1333299997364990 0.6666699998682495 0.4177332926270398 Zn
atom_frac 0.5333299994203043 0.8666699997101522 0.4177332926270398 Zn
atom_frac 0.3333300000526938 0.4666700000263469 0.4177332926270398 Zn
atom_frac 0.7333300006850839 0.0666700003425417 0.4177332926270398 Zn
atom_frac 0.1333300006850832 0.0666700003425417 0.4177332926270398 Zn
atom_frac 0.7333300003688884 0.2666700001844444 0.4177332926270398 Zn
atom_frac 0.3333299997364990 0.6666699998682495 0.4177332926270398 Zn
atom_frac 0.7333300000526937 0.4666700000263469 0.4177332926270398 Zn
atom_frac 0.1333299994203044 0.8666699997101522 0.4177332926270398 Zn
atom_frac 0.7333299997364990 0.6666699998682495 0.4177332926270398 Zn
atom_frac 0.3333299994203043 0.8666699997101522 0.4177332926270398 Zn
atom_frac 0.7333299994203049 0.8666699997101522 0.4177332926270398 Zn
atom_frac 0.1333300000526937 0.4666700000263469 0.4177332926270398 Zn
atom_frac 0.9333300006850834 0.0666700003425417 0.4177332926270398 Zn
atom_frac 0.5333300006850835 0.0666700003425417 0.4177332926270398 Zn
atom_frac 0.9333300003688884 0.2666700001844444 0.4177332926270398 Zn
atom_frac 0.3333300006850832 0.0666700003425417 0.4177332926270398 Zn
atom_frac 0.9333300000526936 0.4666700000263469 0.4177332926270398 Zn
atom_frac 0.5333300003688888 0.2666700001844444 0.4177332926270398 Zn
atom_frac 0.9333299997364989 0.6666699998682495 0.4177332926270398 Zn
atom_frac 0.1333300003688886 0.2666700001844444 0.4177332926270398 Zn
atom_frac 0.9333299994203043 0.8666699997101522 0.4177332926270398 Zn
atom_frac 0.7333300003688884 0.2666700001844444 0.4727665687589894 O
atom_frac 0.3333300000526938 0.4666700000263469 0.4727665687589894 O
atom_frac 0.5333300003688888 0.2666700001844444 0.4727665687589894 O
atom_frac 0.7333300000526937 0.4666700000263469 0.4727665687589894 O
atom_frac 0.1333299997364990 0.6666699998682495 0.4727665687589894 O
atom_frac 0.3333300006850832 0.0666700003425417 0.4727665687589894 O
atom_frac 0.7333299997364990 0.6666699998682495 0.4727665687589894 O
atom_frac 0.5333300000526938 0.4666700000263469 0.4727665687589894 O
atom_frac 0.3333299997364990 0.6666699998682495 0.4727665687589894 O
atom_frac 0.7333299994203049 0.8666699997101522 0.4727665687589894 O
atom_frac 0.1333300000526937 0.4666700000263469 0.4727665687589894 O
atom_frac 0.5333299997364991 0.6666699998682495 0.4727665687589894 O
atom_frac 0.9333300006850834 0.0666700003425417 0.4727665687589894 O
atom_frac 0.1333300006850832 0.0666700003425417 0.4727665687589894 O
atom_frac 0.3333299994203043 0.8666699997101522 0.4727665687589894 O
atom_frac 0.9333300003688884 0.2666700001844444 0.4727665687589894 O
atom_frac 0.5333299994203043 0.8666699997101522 0.4727665687589894 O
atom_frac 0.3333300003688885 0.2666700001844444 0.4727665687589894 O
atom_frac 0.9333300000526936 0.4666700000263469 0.4727665687589894 O
atom_frac 0.1333299994203044 0.8666699997101522 0.4727665687589894 O
atom_frac 0.7333300006850839 0.0666700003425417 0.4727665687589894 O
atom_frac 0.9333299997364989 0.6666699998682495 0.4727665687589894 O
atom_frac 0.5333300006850835 0.0666700003425417 0.4727665687589894 O
atom_frac 0.1333300003688886 0.2666700001844444 0.4727665687589894 O
atom_frac 0.9333299994203043 0.8666699997101522 0.4727665687589894 O
atom_frac 0.6666699996311113 0.7333299998155558 0.4901264472336560 Zn
atom_frac 0.4666700005796955 0.1333300002898478 0.4901264472336560 Zn
atom_frac 0.0666699993149166 0.9333299996574582 0.4901264472336560 Zn
atom_frac 0.4666699993149165 0.9333299996574582 0.4901264472336560 Zn
atom_frac 0.6666699993149166 0.9333299996574582 0.4901264472336560 Zn
atom_frac 0.0666699996311113 0.7333299998155558 0.4901264472336560 Zn
atom_frac 0.2666699996311113 0.7333299998155558 0.4901264472336560 Zn
atom_frac 0.4666700002635008 0.3333300001317506 0.4901264472336560 Zn
atom_frac 0.8666700005796955 0.1333300002898478 0.4901264472336560 Zn
atom_frac 0.6666700005796954 0.1333300002898478 0.4901264472336560 Zn
atom_frac 0.2666700002635009 0.3333300001317506 0.4901264472336560 Zn
atom_frac 0.0666700002635008 0.3333300001317506 0.4901264472336560 Zn
atom_frac 0.8666700002635008 0.3333300001317506 0.4901264472336560 Zn
atom_frac 0.0666700005796955 0.1333300002898478 0.4901264472336560 Zn
atom_frac 0.6666700002635008 0.3333300001317506 0.4901264472336560 Zn
atom_frac 0.4666699999473060 0.5333299999736530 0.4901264472336560 Zn
atom_frac 0.8666699999473063 0.5333299999736530 0.4901264472336560 Zn
atom_frac 0.2666699993149165 0.9333299996574582 0.4901264472336560 Zn
atom_frac 0.2666700005796955 0.1333300002898478 0.4901264472336560 Zn
atom_frac 0.6666699999473061 0.5333299999736530 0.4901264472336560 Zn
atom_frac 0.8666699996311112 0.7333299998155558 0.4901264472336560 Zn
atom_frac 0.2666699999473060 0.5333299999736530 0.4901264472336560 Zn
atom_frac 0.4666699996311113 0.7333299998155558 0.4901264472336560 Zn
atom_frac 0.0666699999473060 0.5333299999736530 0.4901264472336560 Zn
atom_frac 0.8666699993149166 0.9333299996574582 0.4901264472336560 Zn
atom_frac 0.4666699999473060 0.5333299999736530 0.5451597233656057 O
    constrain_relaxation .true.
atom_frac 0.2666700002635009 0.3333300001317506 0.5451597233656057 O
    constrain_relaxation .true.
atom_frac 0.0666699996311113 0.7333299998155558 0.5451597233656057 O
    constrain_relaxation .true.
atom_frac 0.4666700005796955 0.1333300002898478 0.5451597233656057 O
    constrain_relaxation .true.
atom_frac 0.8666700005796955 0.1333300002898478 0.5451597233656057 O
    constrain_relaxation .true.
atom_frac 0.6666700002635008 0.3333300001317506 0.5451597233656057 O
    constrain_relaxation .true.
atom_frac 0.2666699996311113 0.7333299998155558 0.5451597233656057 O
    constrain_relaxation .true.
atom_frac 0.4666699996311113 0.7333299998155558 0.5451597233656057 O
    constrain_relaxation .true.
atom_frac 0.2666700005796955 0.1333300002898478 0.5451597233656057 O
    constrain_relaxation .true.
atom_frac 0.8666700002635008 0.3333300001317506 0.5451597233656057 O
    constrain_relaxation .true.
atom_frac 0.0666699993149166 0.9333299996574582 0.5451597233656057 O
    constrain_relaxation .true.
atom_frac 0.6666699999473061 0.5333299999736530 0.5451597233656057 O
    constrain_relaxation .true.
atom_frac 0.0666700002635008 0.3333300001317506 0.5451597233656057 O
    constrain_relaxation .true.
atom_frac 0.4666700002635008 0.3333300001317506 0.5451597233656057 O
    constrain_relaxation .true.
atom_frac 0.8666699999473063 0.5333299999736530 0.5451597233656057 O
    constrain_relaxation .true.
atom_frac 0.4666699993149165 0.9333299996574582 0.5451597233656057 O
    constrain_relaxation .true.
atom_frac 0.2666699999473060 0.5333299999736530 0.5451597233656057 O
    constrain_relaxation .true.
atom_frac 0.6666699996311113 0.7333299998155558 0.5451597233656057 O
    constrain_relaxation .true.
atom_frac 0.2666699993149165 0.9333299996574582 0.5451597233656057 O
    constrain_relaxation .true.
atom_frac 0.8666699996311112 0.7333299998155558 0.5451597233656057 O
    constrain_relaxation .true.
atom_frac 0.0666699999473060 0.5333299999736530 0.5451597233656057 O
    constrain_relaxation .true.
atom_frac 0.0666700005796955 0.1333300002898478 0.5451597233656057 O
    constrain_relaxation .true.
atom_frac 0.6666700005796954 0.1333300002898478 0.5451597233656057 O
    constrain_relaxation .true.
atom_frac 0.6666699993149166 0.9333299996574582 0.5451597233656057 O
    constrain_relaxation .true.
atom_frac 0.8666699993149166 0.9333299996574582 0.5451597233656057 O
    constrain_relaxation .true.
atom_frac 0.9333300006850834 0.0666700003425417 0.5625196018402723 Zn
    constrain_relaxation .true.
atom_frac 0.1333300006850832 0.0666700003425417 0.5625196018402723 Zn
    constrain_relaxation .true.
atom_frac 0.5333299994203043 0.8666699997101522 0.5625196018402723 Zn
    constrain_relaxation .true.
atom_frac 0.7333300000526937 0.4666700000263469 0.5625196018402723 Zn
    constrain_relaxation .true.
atom_frac 0.3333299997364990 0.6666699998682495 0.5625196018402723 Zn
    constrain_relaxation .true.
atom_frac 0.1333299997364990 0.6666699998682495 0.5625196018402723 Zn
    constrain_relaxation .true.
atom_frac 0.9333300003688884 0.2666700001844444 0.5625196018402723 Zn
    constrain_relaxation .true.
atom_frac 0.5333300000526938 0.4666700000263469 0.5625196018402723 Zn
    constrain_relaxation .true.
atom_frac 0.5333300006850835 0.0666700003425417 0.5625196018402723 Zn
    constrain_relaxation .true.
atom_frac 0.1333300000526937 0.4666700000263469 0.5625196018402723 Zn
    constrain_relaxation .true.
atom_frac 0.7333299997364990 0.6666699998682495 0.5625196018402723 Zn
    constrain_relaxation .true.
atom_frac 0.7333300006850839 0.0666700003425417 0.5625196018402723 Zn
    constrain_relaxation .true.
atom_frac 0.9333300000526936 0.4666700000263469 0.5625196018402723 Zn
    constrain_relaxation .true.
atom_frac 0.3333300000526938 0.4666700000263469 0.5625196018402723 Zn
    constrain_relaxation .true.
atom_frac 0.1333299994203044 0.8666699997101522 0.5625196018402723 Zn
    constrain_relaxation .true.
atom_frac 0.3333300003688885 0.2666700001844444 0.5625196018402723 Zn
    constrain_relaxation .true.
atom_frac 0.5333299997364991 0.6666699998682495 0.5625196018402723 Zn
    constrain_relaxation .true.
atom_frac 0.7333299994203049 0.8666699997101522 0.5625196018402723 Zn
    constrain_relaxation .true.
atom_frac 0.9333299997364989 0.6666699998682495 0.5625196018402723 Zn
    constrain_relaxation .true.
atom_frac 0.3333299994203043 0.8666699997101522 0.5625196018402723 Zn
    constrain_relaxation .true.
atom_frac 0.7333300003688884 0.2666700001844444 0.5625196018402723 Zn
    constrain_relaxation .true.
atom_frac 0.5333300003688888 0.2666700001844444 0.5625196018402723 Zn
    constrain_relaxation .true.
atom_frac 0.3333300006850832 0.0666700003425417 0.5625196018402723 Zn
    constrain_relaxation .true.
atom_frac 0.1333300003688886 0.2666700001844444 0.5625196018402723 Zn
    constrain_relaxation .true.
atom_frac 0.9333299994203043 0.8666699997101522 0.5625196018402723 Zn
    constrain_relaxation .true.
atom_frac 0.7333300006850839 0.0666700003425417 0.6175528779722219 O
atom_frac 0.5333300003688888 0.2666700001844444 0.6175528779722219 O
atom_frac 0.5333299997364991 0.6666699998682495 0.6175528779722219 O
atom_frac 0.9333300003688884 0.2666700001844444 0.6175528779722219 O
atom_frac 0.7333299997364990 0.6666699998682495 0.6175528779722219 O
atom_frac 0.3333299997364990 0.6666699998682495 0.6175528779722219 O
atom_frac 0.3333300006850832 0.0666700003425417 0.6175528779722219 O
atom_frac 0.3333300000526938 0.4666700000263469 0.6175528779722219 O
atom_frac 0.3333300003688885 0.2666700001844444 0.6175528779722219 O
atom_frac 0.7333300003688884 0.2666700001844444 0.6175528779722219 O
atom_frac 0.9333300000526936 0.4666700000263469 0.6175528779722219 O
atom_frac 0.5333300006850835 0.0666700003425417 0.6175528779722219 O
atom_frac 0.7333299994203049 0.8666699997101522 0.6175528779722219 O
atom_frac 0.1333299997364990 0.6666699998682495 0.6175528779722219 O
atom_frac 0.5333299994203043 0.8666699997101522 0.6175528779722219 O
atom_frac 0.5333300000526938 0.4666700000263469 0.6175528779722219 O
atom_frac 0.1333300006850832 0.0666700003425417 0.6175528779722219 O
atom_frac 0.9333299997364989 0.6666699998682495 0.6175528779722219 O
atom_frac 0.1333300003688886 0.2666700001844444 0.6175528779722219 O
atom_frac 0.7333300000526937 0.4666700000263469 0.6175528779722219 O
atom_frac 0.9333300006850834 0.0666700003425417 0.6175528779722219 O
atom_frac 0.3333299994203043 0.8666699997101522 0.6175528779722219 O
atom_frac 0.1333299994203044 0.8666699997101522 0.6175528779722219 O
atom_frac 0.1333300000526937 0.4666700000263469 0.6175528779722219 O
atom_frac 0.9333299994203043 0.8666699997101522 0.6175528779722219 O
atom_frac 0.8666700002635008 0.3333300001317506 0.6349127564468886 Zn
atom_frac 0.6666700002635008 0.3333300001317506 0.6349127564468886 Zn
atom_frac 0.4666699993149165 0.9333299996574582 0.6349127564468886 Zn
atom_frac 0.2666699996311113 0.7333299998155558 0.6349127564468886 Zn
atom_frac 0.2666699999473060 0.5333299999736530 0.6349127564468886 Zn
atom_frac 0.0666700002635008 0.3333300001317506 0.6349127564468886 Zn
atom_frac 0.6666699993149166 0.9333299996574582 0.6349127564468886 Zn
atom_frac 0.4666700002635008 0.3333300001317506 0.6349127564468886 Zn
atom_frac 0.8666699999473063 0.5333299999736530 0.6349127564468886 Zn
atom_frac 0.0666699993149166 0.9333299996574582 0.6349127564468886 Zn
atom_frac 0.0666699996311113 0.7333299998155558 0.6349127564468886 Zn
atom_frac 0.6666699999473061 0.5333299999736530 0.6349127564468886 Zn
atom_frac 0.4666699996311113 0.7333299998155558 0.6349127564468886 Zn
atom_frac 0.6666700005796954 0.1333300002898478 0.6349127564468886 Zn
atom_frac 0.0666700005796955 0.1333300002898478 0.6349127564468886 Zn
atom_frac 0.8666700005796955 0.1333300002898478 0.6349127564468886 Zn
atom_frac 0.8666699996311112 0.7333299998155558 0.6349127564468886 Zn
atom_frac 0.4666700005796955 0.1333300002898478 0.6349127564468886 Zn
atom_frac 0.2666700005796955 0.1333300002898478 0.6349127564468886 Zn
atom_frac 0.0666699999473060 0.5333299999736530 0.6349127564468886 Zn
atom_frac 0.2666699993149165 0.9333299996574582 0.6349127564468886 Zn
atom_frac 0.6666699996311113 0.7333299998155558 0.6349127564468886 Zn
atom_frac 0.4666699999473060 0.5333299999736530 0.6349127564468886 Zn
atom_frac 0.2666700002635009 0.3333300001317506 0.6349127564468886 Zn
atom_frac 0.8666699993149166 0.9333299996574582 0.6349127564468886 Zn
atom_frac 0.2666699996311113 0.7333299998155558 0.6899460325788381 O
atom_frac 0.6666699993149166 0.9333299996574582 0.6899460325788381 O
atom_frac 0.6666700005796954 0.1333300002898478 0.6899460325788381 O
atom_frac 0.6666699999473061 0.5333299999736530 0.6899460325788381 O
atom_frac 0.0666700005796955 0.1333300002898478 0.6899460325788381 O
atom_frac 0.0666700002635008 0.3333300001317506 0.6899460325788381 O
atom_frac 0.8666699999473063 0.5333299999736530 0.6899460325788381 O
atom_frac 0.4666699999473060 0.5333299999736530 0.6899460325788381 O
atom_frac 0.2666700005796955 0.1333300002898478 0.6899460325788381 O
atom_frac 0.0666699996311113 0.7333299998155558 0.6899460325788381 O
atom_frac 0.0666699993149166 0.9333299996574582 0.6899460325788381 O
atom_frac 0.8666700005796955 0.1333300002898478 0.6899460325788381 O
atom_frac 0.4666699993149165 0.9333299996574582 0.6899460325788381 O
atom_frac 0.4666700002635008 0.3333300001317506 0.6899460325788381 O
atom_frac 0.6666699996311113 0.7333299998155558 0.6899460325788381 O
atom_frac 0.8666699996311112 0.7333299998155558 0.6899460325788381 O
atom_frac 0.6666700002635008 0.3333300001317506 0.6899460325788381 O
atom_frac 0.2666700002635009 0.3333300001317506 0.6899460325788381 O
atom_frac 0.0666699999473060 0.5333299999736530 0.6899460325788381 O
atom_frac 0.4666700005796955 0.1333300002898478 0.6899460325788381 O
atom_frac 0.2666699999473060 0.5333299999736530 0.6899460325788381 O
atom_frac 0.8666700002635008 0.3333300001317506 0.6899460325788381 O
atom_frac 0.4666699996311113 0.7333299998155558 0.6899460325788381 O
atom_frac 0.2666699993149165 0.9333299996574582 0.6899460325788381 O
atom_frac 0.8666699993149166 0.9333299996574582 0.6899460325788381 O
atom_frac 0.9333300000526936 0.4666700000263469 0.7073059110535048 Zn
atom_frac 0.1333300000526937 0.4666700000263469 0.7073059110535048 Zn
atom_frac 0.9333300006850834 0.0666700003425417 0.7073059110535048 Zn
atom_frac 0.5333299997364991 0.6666699998682495 0.7073059110535048 Zn
atom_frac 0.3333300003688885 0.2666700001844444 0.7073059110535048 Zn
atom_frac 0.1333299997364990 0.6666699998682495 0.7073059110535048 Zn
atom_frac 0.1333300003688886 0.2666700001844444 0.7073059110535048 Zn
atom_frac 0.5333300000526938 0.4666700000263469 0.7073059110535048 Zn
atom_frac 0.9333299997364989 0.6666699998682495 0.7073059110535048 Zn
atom_frac 0.7333300006850839 0.0666700003425417 0.7073059110535048 Zn
atom_frac 0.3333300006850832 0.0666700003425417 0.7073059110535048 Zn
atom_frac 0.9333300003688884 0.2666700001844444 0.7073059110535048 Zn
atom_frac 0.7333300000526937 0.4666700000263469 0.7073059110535048 Zn
atom_frac 0.7333299994203049 0.8666699997101522 0.7073059110535048 Zn
atom_frac 0.5333300003688888 0.2666700001844444 0.7073059110535048 Zn
atom_frac 0.3333299997364990 0.6666699998682495 0.7073059110535048 Zn
atom_frac 0.5333300006850835 0.0666700003425417 0.7073059110535048 Zn
atom_frac 0.9333299994203043 0.8666699997101522 0.7073059110535048 Zn
atom_frac 0.3767540967599196 0.3921001002252975 0.3037368271038486 Pd
atom_frac 0.3767540967599196 0.3921001002252975 0.3451470951939243 Pd
atom_frac 0.4562900485670621 0.3125641486067715 0.3451470951939243 Pd
atom_frac 0.4562900481898295 0.5511720034623496 0.3451470951939243 Pd
atom_frac 0.6153619518041142 0.3921001002252975 0.3037368271038486 Pd
atom_frac 0.6153619518041142 0.3921001002252975 0.3451470951939243 Pd
atom_frac 0.5358259999969718 0.4716360518438235 0.3037368271038486 Pd
atom_frac 0.6153619514268815 0.6307079550808756 0.3037368271038486 Pd
atom_frac 0.6153619514268815 0.6307079550808756 0.3451470951939243 Pd
atom_frac 0.6948979032340240 0.5511720034623496 0.3451470951939243 Pd
