#=======================================================
# FHI-aims file: ./geometry.in
# Created using the Atomic Simulation Environment (ASE)
# Mon Nov 27 10:01:43 2023
#=======================================================
lattice_vector 16.3029000000000011 0.0000000000000000 0.0000000000000000 
lattice_vector -8.1514500000000005 14.1187255999999994 0.0000000000000000 
lattice_vector 0.0000000000000000 0.0000000000000000 36.2229000000000028 
atom_frac 0.0666699993149167 0.9333299986298332 0.2968375313544747 O
atom_frac 0.2666700002635010 0.3333300005270019 0.2968375313544747 O
atom_frac 0.2666699999473062 0.5333299998946123 0.2968375313544747 O
atom_frac 0.2666699993149168 0.9333299986298332 0.2968375313544747 O
atom_frac 0.4666700005796957 0.1333300011593914 0.2968375313544747 O
atom_frac 0.4666700002635009 0.3333300005270019 0.2968375313544747 O
atom_frac 0.4666699999473062 0.5333299998946123 0.2968375313544747 O
atom_frac 0.4666699996311115 0.7333299992622229 0.2968375313544747 O
atom_frac 0.4666699993149168 0.9333299986298332 0.2968375313544747 O
atom_frac 0.6666700005796957 0.1333300011593914 0.2968375313544747 O
atom_frac 0.6666699999473062 0.5333299998946123 0.2968375313544747 O
atom_frac 0.6666699996311114 0.7333299992622229 0.2968375313544747 O
atom_frac 0.6666699993149168 0.9333299986298332 0.2968375313544747 O
atom_frac 0.8666700005796958 0.1333300011593914 0.2968375313544747 O
atom_frac 0.8666700002635012 0.3333300005270019 0.2968375313544747 O
atom_frac 0.8666699999473064 0.5333299998946123 0.2968375313544747 O
atom_frac 0.8666699996311116 0.7333299992622229 0.2968375313544747 O
atom_frac 0.8666699993149168 0.9333299986298332 0.2968375313544747 O
atom_frac 0.5333300000526938 0.4666700001053877 0.3141974098291412 Zn
atom_frac 0.3333300003688887 0.2666700007377774 0.3141974098291412 Zn
atom_frac 0.5333299997364992 0.6666699994729982 0.3141974098291412 Zn
atom_frac 0.1333299997364992 0.6666699994729982 0.3141974098291412 Zn
atom_frac 0.5333299994203045 0.8666699988406087 0.3141974098291412 Zn
atom_frac 0.3333300000526939 0.4666700001053877 0.3141974098291412 Zn
atom_frac 0.7333300006850836 0.0666700013701669 0.3141974098291412 Zn
atom_frac 0.1333300006850834 0.0666700013701669 0.3141974098291412 Zn
atom_frac 0.7333300003688888 0.2666700007377774 0.3141974098291412 Zn
atom_frac 0.3333299997364992 0.6666699994729982 0.3141974098291412 Zn
atom_frac 0.7333300000526940 0.4666700001053877 0.3141974098291412 Zn
atom_frac 0.1333299994203044 0.8666699988406087 0.3141974098291412 Zn
atom_frac 0.7333299997364993 0.6666699994729982 0.3141974098291412 Zn
atom_frac 0.3333299994203045 0.8666699988406087 0.3141974098291412 Zn
atom_frac 0.7333299994203045 0.8666699988406087 0.3141974098291412 Zn
atom_frac 0.1333300000526939 0.4666700001053877 0.3141974098291412 Zn
atom_frac 0.9333300006850834 0.0666700013701669 0.3141974098291412 Zn
atom_frac 0.5333300006850835 0.0666700013701669 0.3141974098291412 Zn
atom_frac 0.9333300003688888 0.2666700007377774 0.3141974098291412 Zn
atom_frac 0.3333300006850833 0.0666700013701669 0.3141974098291412 Zn
atom_frac 0.9333300000526940 0.4666700001053877 0.3141974098291412 Zn
atom_frac 0.5333300003688887 0.2666700007377774 0.3141974098291412 Zn
atom_frac 0.9333299997364993 0.6666699994729982 0.3141974098291412 Zn
atom_frac 0.1333300003688887 0.2666700007377774 0.3141974098291412 Zn
atom_frac 0.9333299994203045 0.8666699988406087 0.3141974098291412 Zn
atom_frac 0.7333300003688888 0.2666700007377774 0.3692306859610909 O
atom_frac 0.3333300000526939 0.4666700001053877 0.3692306859610909 O
atom_frac 0.5333300003688887 0.2666700007377774 0.3692306859610909 O
atom_frac 0.7333300000526940 0.4666700001053877 0.3692306859610909 O
atom_frac 0.1333299997364992 0.6666699994729982 0.3692306859610909 O
atom_frac 0.3333300006850833 0.0666700013701669 0.3692306859610909 O
atom_frac 0.7333299997364993 0.6666699994729982 0.3692306859610909 O
atom_frac 0.5333300000526938 0.4666700001053877 0.3692306859610909 O
atom_frac 0.3333299997364992 0.6666699994729982 0.3692306859610909 O
atom_frac 0.7333299994203045 0.8666699988406087 0.3692306859610909 O
atom_frac 0.1333300000526939 0.4666700001053877 0.3692306859610909 O
atom_frac 0.5333299997364992 0.6666699994729982 0.3692306859610909 O
atom_frac 0.9333300006850834 0.0666700013701669 0.3692306859610909 O
atom_frac 0.1333300006850834 0.0666700013701669 0.3692306859610909 O
atom_frac 0.3333299994203045 0.8666699988406087 0.3692306859610909 O
atom_frac 0.9333300003688888 0.2666700007377774 0.3692306859610909 O
atom_frac 0.5333299994203045 0.8666699988406087 0.3692306859610909 O
atom_frac 0.3333300003688887 0.2666700007377774 0.3692306859610909 O
atom_frac 0.9333300000526940 0.4666700001053877 0.3692306859610909 O
atom_frac 0.1333299994203044 0.8666699988406087 0.3692306859610909 O
atom_frac 0.7333300006850836 0.0666700013701669 0.3692306859610909 O
atom_frac 0.9333299997364993 0.6666699994729982 0.3692306859610909 O
atom_frac 0.5333300006850835 0.0666700013701669 0.3692306859610909 O
atom_frac 0.1333300003688887 0.2666700007377774 0.3692306859610909 O
atom_frac 0.9333299994203045 0.8666699988406087 0.3692306859610909 O
atom_frac 0.6666699996311114 0.7333299992622229 0.3865905644357575 Zn
atom_frac 0.4666700005796957 0.1333300011593914 0.3865905644357575 Zn
atom_frac 0.0666699993149167 0.9333299986298332 0.3865905644357575 Zn
atom_frac 0.4666699993149168 0.9333299986298332 0.3865905644357575 Zn
atom_frac 0.6666699993149168 0.9333299986298332 0.3865905644357575 Zn
atom_frac 0.0666699996311115 0.7333299992622229 0.3865905644357575 Zn
atom_frac 0.2666699996311115 0.7333299992622229 0.3865905644357575 Zn
atom_frac 0.4666700002635009 0.3333300005270019 0.3865905644357575 Zn
atom_frac 0.8666700005796958 0.1333300011593914 0.3865905644357575 Zn
atom_frac 0.6666700005796957 0.1333300011593914 0.3865905644357575 Zn
atom_frac 0.2666700002635010 0.3333300005270019 0.3865905644357575 Zn
atom_frac 0.0666700002635010 0.3333300005270019 0.3865905644357575 Zn
atom_frac 0.8666700002635012 0.3333300005270019 0.3865905644357575 Zn
atom_frac 0.0666700005796957 0.1333300011593914 0.3865905644357575 Zn
atom_frac 0.6666700002635011 0.3333300005270019 0.3865905644357575 Zn
atom_frac 0.4666699999473062 0.5333299998946123 0.3865905644357575 Zn
atom_frac 0.8666699999473064 0.5333299998946123 0.3865905644357575 Zn
atom_frac 0.2666699993149168 0.9333299986298332 0.3865905644357575 Zn
atom_frac 0.2666700005796957 0.1333300011593914 0.3865905644357575 Zn
atom_frac 0.6666699999473062 0.5333299998946123 0.3865905644357575 Zn
atom_frac 0.8666699996311116 0.7333299992622229 0.3865905644357575 Zn
atom_frac 0.2666699999473062 0.5333299998946123 0.3865905644357575 Zn
atom_frac 0.4666699996311115 0.7333299992622229 0.3865905644357575 Zn
atom_frac 0.0666699999473062 0.5333299998946123 0.3865905644357575 Zn
atom_frac 0.8666699993149168 0.9333299986298332 0.3865905644357575 Zn
atom_frac 0.4666699999473062 0.5333299998946123 0.4416238405677071 O
    constrain_relaxation .true.
atom_frac 0.2666700002635010 0.3333300005270019 0.4416238405677071 O
    constrain_relaxation .true.
atom_frac 0.0666699996311115 0.7333299992622229 0.4416238405677071 O
    constrain_relaxation .true.
atom_frac 0.4666700005796957 0.1333300011593914 0.4416238405677071 O
    constrain_relaxation .true.
atom_frac 0.8666700005796958 0.1333300011593914 0.4416238405677071 O
    constrain_relaxation .true.
atom_frac 0.6666700002635011 0.3333300005270019 0.4416238405677071 O
    constrain_relaxation .true.
atom_frac 0.2666699996311115 0.7333299992622229 0.4416238405677071 O
    constrain_relaxation .true.
atom_frac 0.4666699996311115 0.7333299992622229 0.4416238405677071 O
    constrain_relaxation .true.
atom_frac 0.2666700005796957 0.1333300011593914 0.4416238405677071 O
    constrain_relaxation .true.
atom_frac 0.8666700002635012 0.3333300005270019 0.4416238405677071 O
    constrain_relaxation .true.
atom_frac 0.0666699993149167 0.9333299986298332 0.4416238405677071 O
    constrain_relaxation .true.
atom_frac 0.6666699999473062 0.5333299998946123 0.4416238405677071 O
    constrain_relaxation .true.
atom_frac 0.0666700002635010 0.3333300005270019 0.4416238405677071 O
    constrain_relaxation .true.
atom_frac 0.4666700002635009 0.3333300005270019 0.4416238405677071 O
    constrain_relaxation .true.
atom_frac 0.8666699999473064 0.5333299998946123 0.4416238405677071 O
    constrain_relaxation .true.
atom_frac 0.4666699993149168 0.9333299986298332 0.4416238405677071 O
    constrain_relaxation .true.
atom_frac 0.2666699999473062 0.5333299998946123 0.4416238405677071 O
    constrain_relaxation .true.
atom_frac 0.6666699996311114 0.7333299992622229 0.4416238405677071 O
    constrain_relaxation .true.
atom_frac 0.2666699993149168 0.9333299986298332 0.4416238405677071 O
    constrain_relaxation .true.
atom_frac 0.8666699996311116 0.7333299992622229 0.4416238405677071 O
    constrain_relaxation .true.
atom_frac 0.0666699999473062 0.5333299998946123 0.4416238405677071 O
    constrain_relaxation .true.
atom_frac 0.0666700005796957 0.1333300011593914 0.4416238405677071 O
    constrain_relaxation .true.
atom_frac 0.6666700005796957 0.1333300011593914 0.4416238405677071 O
    constrain_relaxation .true.
atom_frac 0.6666699993149168 0.9333299986298332 0.4416238405677071 O
    constrain_relaxation .true.
atom_frac 0.8666699993149168 0.9333299986298332 0.4416238405677071 O
    constrain_relaxation .true.
atom_frac 0.9333300006850834 0.0666700013701669 0.4589837190423737 Zn
    constrain_relaxation .true.
atom_frac 0.1333300006850834 0.0666700013701669 0.4589837190423737 Zn
    constrain_relaxation .true.
atom_frac 0.5333299994203045 0.8666699988406087 0.4589837190423737 Zn
    constrain_relaxation .true.
atom_frac 0.7333300000526940 0.4666700001053877 0.4589837190423737 Zn
    constrain_relaxation .true.
atom_frac 0.3333299997364992 0.6666699994729982 0.4589837190423737 Zn
    constrain_relaxation .true.
atom_frac 0.1333299997364992 0.6666699994729982 0.4589837190423737 Zn
    constrain_relaxation .true.
atom_frac 0.9333300003688888 0.2666700007377774 0.4589837190423737 Zn
    constrain_relaxation .true.
atom_frac 0.5333300000526938 0.4666700001053877 0.4589837190423737 Zn
    constrain_relaxation .true.
atom_frac 0.5333300006850835 0.0666700013701669 0.4589837190423737 Zn
    constrain_relaxation .true.
atom_frac 0.1333300000526939 0.4666700001053877 0.4589837190423737 Zn
    constrain_relaxation .true.
atom_frac 0.7333299997364993 0.6666699994729982 0.4589837190423737 Zn
    constrain_relaxation .true.
atom_frac 0.7333300006850836 0.0666700013701669 0.4589837190423737 Zn
    constrain_relaxation .true.
atom_frac 0.9333300000526940 0.4666700001053877 0.4589837190423737 Zn
    constrain_relaxation .true.
atom_frac 0.3333300000526939 0.4666700001053877 0.4589837190423737 Zn
    constrain_relaxation .true.
atom_frac 0.1333299994203044 0.8666699988406087 0.4589837190423737 Zn
    constrain_relaxation .true.
atom_frac 0.3333300003688887 0.2666700007377774 0.4589837190423737 Zn
    constrain_relaxation .true.
atom_frac 0.5333299997364992 0.6666699994729982 0.4589837190423737 Zn
    constrain_relaxation .true.
atom_frac 0.7333299994203045 0.8666699988406087 0.4589837190423737 Zn
    constrain_relaxation .true.
atom_frac 0.9333299997364993 0.6666699994729982 0.4589837190423737 Zn
    constrain_relaxation .true.
atom_frac 0.3333299994203045 0.8666699988406087 0.4589837190423737 Zn
    constrain_relaxation .true.
atom_frac 0.7333300003688888 0.2666700007377774 0.4589837190423737 Zn
    constrain_relaxation .true.
atom_frac 0.5333300003688887 0.2666700007377774 0.4589837190423737 Zn
    constrain_relaxation .true.
atom_frac 0.3333300006850833 0.0666700013701669 0.4589837190423737 Zn
    constrain_relaxation .true.
atom_frac 0.1333300003688887 0.2666700007377774 0.4589837190423737 Zn
    constrain_relaxation .true.
atom_frac 0.9333299994203045 0.8666699988406087 0.4589837190423737 Zn
    constrain_relaxation .true.
atom_frac 0.7333300006850836 0.0666700013701669 0.5140169951743233 O
atom_frac 0.5333300003688887 0.2666700007377774 0.5140169951743233 O
atom_frac 0.5333299997364992 0.6666699994729982 0.5140169951743233 O
atom_frac 0.9333300003688888 0.2666700007377774 0.5140169951743233 O
atom_frac 0.7333299997364993 0.6666699994729982 0.5140169951743233 O
atom_frac 0.3333299997364992 0.6666699994729982 0.5140169951743233 O
atom_frac 0.3333300006850833 0.0666700013701669 0.5140169951743233 O
atom_frac 0.3333300000526939 0.4666700001053877 0.5140169951743233 O
atom_frac 0.3333300003688887 0.2666700007377774 0.5140169951743233 O
atom_frac 0.7333300003688888 0.2666700007377774 0.5140169951743233 O
atom_frac 0.9333300000526940 0.4666700001053877 0.5140169951743233 O
atom_frac 0.5333300006850835 0.0666700013701669 0.5140169951743233 O
atom_frac 0.7333299994203045 0.8666699988406087 0.5140169951743233 O
atom_frac 0.1333299997364992 0.6666699994729982 0.5140169951743233 O
atom_frac 0.5333299994203045 0.8666699988406087 0.5140169951743233 O
atom_frac 0.5333300000526938 0.4666700001053877 0.5140169951743233 O
atom_frac 0.1333300006850834 0.0666700013701669 0.5140169951743233 O
atom_frac 0.9333299997364993 0.6666699994729982 0.5140169951743233 O
atom_frac 0.1333300003688887 0.2666700007377774 0.5140169951743233 O
atom_frac 0.7333300000526940 0.4666700001053877 0.5140169951743233 O
atom_frac 0.9333300006850834 0.0666700013701669 0.5140169951743233 O
atom_frac 0.3333299994203045 0.8666699988406087 0.5140169951743233 O
atom_frac 0.1333299994203044 0.8666699988406087 0.5140169951743233 O
atom_frac 0.1333300000526939 0.4666700001053877 0.5140169951743233 O
atom_frac 0.9333299994203045 0.8666699988406087 0.5140169951743233 O
atom_frac 0.8666700002635012 0.3333300005270019 0.5313768736489900 Zn
atom_frac 0.6666700002635011 0.3333300005270019 0.5313768736489900 Zn
atom_frac 0.4666699993149168 0.9333299986298332 0.5313768736489900 Zn
atom_frac 0.2666699996311115 0.7333299992622229 0.5313768736489900 Zn
atom_frac 0.2666699999473062 0.5333299998946123 0.5313768736489900 Zn
atom_frac 0.0666700002635010 0.3333300005270019 0.5313768736489900 Zn
atom_frac 0.6666699993149168 0.9333299986298332 0.5313768736489900 Zn
atom_frac 0.4666700002635009 0.3333300005270019 0.5313768736489900 Zn
atom_frac 0.8666699999473064 0.5333299998946123 0.5313768736489900 Zn
atom_frac 0.0666699993149167 0.9333299986298332 0.5313768736489900 Zn
atom_frac 0.0666699996311115 0.7333299992622229 0.5313768736489900 Zn
atom_frac 0.6666699999473062 0.5333299998946123 0.5313768736489900 Zn
atom_frac 0.4666699996311115 0.7333299992622229 0.5313768736489900 Zn
atom_frac 0.6666700005796957 0.1333300011593914 0.5313768736489900 Zn
atom_frac 0.0666700005796957 0.1333300011593914 0.5313768736489900 Zn
atom_frac 0.8666700005796958 0.1333300011593914 0.5313768736489900 Zn
atom_frac 0.8666699996311116 0.7333299992622229 0.5313768736489900 Zn
atom_frac 0.4666700005796957 0.1333300011593914 0.5313768736489900 Zn
atom_frac 0.2666700005796957 0.1333300011593914 0.5313768736489900 Zn
atom_frac 0.0666699999473062 0.5333299998946123 0.5313768736489900 Zn
atom_frac 0.2666699993149168 0.9333299986298332 0.5313768736489900 Zn
atom_frac 0.6666699996311114 0.7333299992622229 0.5313768736489900 Zn
atom_frac 0.4666699999473062 0.5333299998946123 0.5313768736489900 Zn
atom_frac 0.2666700002635010 0.3333300005270019 0.5313768736489900 Zn
atom_frac 0.8666699993149168 0.9333299986298332 0.5313768736489900 Zn
atom_frac 0.2666699996311115 0.7333299992622229 0.5864101497809397 O
atom_frac 0.6666699993149168 0.9333299986298332 0.5864101497809397 O
atom_frac 0.6666700005796957 0.1333300011593914 0.5864101497809397 O
atom_frac 0.6666699999473062 0.5333299998946123 0.5864101497809397 O
atom_frac 0.0666700005796957 0.1333300011593914 0.5864101497809397 O
atom_frac 0.0666700002635010 0.3333300005270019 0.5864101497809397 O
atom_frac 0.8666699999473064 0.5333299998946123 0.5864101497809397 O
atom_frac 0.4666699999473062 0.5333299998946123 0.5864101497809397 O
atom_frac 0.2666700005796957 0.1333300011593914 0.5864101497809397 O
atom_frac 0.0666699996311115 0.7333299992622229 0.5864101497809397 O
atom_frac 0.0666699993149167 0.9333299986298332 0.5864101497809397 O
atom_frac 0.8666700005796958 0.1333300011593914 0.5864101497809397 O
atom_frac 0.4666699993149168 0.9333299986298332 0.5864101497809397 O
atom_frac 0.4666700002635009 0.3333300005270019 0.5864101497809397 O
atom_frac 0.6666699996311114 0.7333299992622229 0.5864101497809397 O
atom_frac 0.8666699996311116 0.7333299992622229 0.5864101497809397 O
atom_frac 0.6666700002635011 0.3333300005270019 0.5864101497809397 O
atom_frac 0.2666700002635010 0.3333300005270019 0.5864101497809397 O
atom_frac 0.0666699999473062 0.5333299998946123 0.5864101497809397 O
atom_frac 0.4666700005796957 0.1333300011593914 0.5864101497809397 O
atom_frac 0.2666699999473062 0.5333299998946123 0.5864101497809397 O
atom_frac 0.8666700002635012 0.3333300005270019 0.5864101497809397 O
atom_frac 0.4666699996311115 0.7333299992622229 0.5864101497809397 O
atom_frac 0.2666699993149168 0.9333299986298332 0.5864101497809397 O
atom_frac 0.8666699993149168 0.9333299986298332 0.5864101497809397 O
atom_frac 0.9333300000526940 0.4666700001053877 0.6037700282556062 Zn
atom_frac 0.1333300000526939 0.4666700001053877 0.6037700282556062 Zn
atom_frac 0.9333300006850834 0.0666700013701669 0.6037700282556062 Zn
atom_frac 0.5333299997364992 0.6666699994729982 0.6037700282556062 Zn
atom_frac 0.3333300003688887 0.2666700007377774 0.6037700282556062 Zn
atom_frac 0.1333299997364992 0.6666699994729982 0.6037700282556062 Zn
atom_frac 0.1333300003688887 0.2666700007377774 0.6037700282556062 Zn
atom_frac 0.5333300000526938 0.4666700001053877 0.6037700282556062 Zn
atom_frac 0.9333299997364993 0.6666699994729982 0.6037700282556062 Zn
atom_frac 0.7333300006850836 0.0666700013701669 0.6037700282556062 Zn
atom_frac 0.3333300006850833 0.0666700013701669 0.6037700282556062 Zn
atom_frac 0.9333300003688888 0.2666700007377774 0.6037700282556062 Zn
atom_frac 0.7333300000526940 0.4666700001053877 0.6037700282556062 Zn
atom_frac 0.7333299994203045 0.8666699988406087 0.6037700282556062 Zn
atom_frac 0.5333300003688887 0.2666700007377774 0.6037700282556062 Zn
atom_frac 0.3333299997364992 0.6666699994729982 0.6037700282556062 Zn
atom_frac 0.5333300006850835 0.0666700013701669 0.6037700282556062 Zn
atom_frac 0.9333299994203045 0.8666699988406087 0.6037700282556062 Zn
atom_frac 0.3767540975504067 0.3921001020621518 0.6617522005554498 Pd
atom_frac 0.3767540975504067 0.3921001020621518 0.7031624686455253 Pd
atom_frac 0.4562900493575491 0.3125641506322421 0.7031624686455253 Pd
atom_frac 0.4562900489803164 0.5511720049219712 0.7031624686455253 Pd
atom_frac 0.6153619525946012 0.3921001020621518 0.6617522005554498 Pd
atom_frac 0.6153619525946012 0.3921001020621518 0.7031624686455253 Pd
atom_frac 0.5358260007874588 0.4716360534920614 0.6617522005554498 Pd
atom_frac 0.6153619522173686 0.6307079563518808 0.6617522005554498 Pd
atom_frac 0.6153619522173686 0.6307079563518808 0.7031624686455253 Pd
atom_frac 0.6948979040245110 0.5511720049219712 0.7031624686455253 Pd
