#=======================================================
# FHI-aims file: slab_atoms_5_131591.in
# Created using the Atomic Simulation Environment (ASE)
# Thu Apr 11 16:08:48 2024
#=======================================================
lattice_vector 14.2126258953087206 0.0000000000000000 0.0000000000000009 
lattice_vector 7.1063129476543567 12.3084950798219044 0.0000000000000009 
lattice_vector 0.0000000000000000 0.0000000000000000 44.5921375682994068 
atom 7.8543458895127136 2.3753236118954564 15.3604109266455584 Zn
    initial_charge         2.000000
atom 10.8464776569461332 3.6709546729293416 15.3604109266455584 Zn
    initial_charge         2.000000
atom 13.8386094243795448 4.9665857339632264 15.3604109266455584 Zn
    initial_charge         2.000000
atom 13.4645929534503672 1.7275080813785142 15.3604109266455584 Zn
    initial_charge         2.000000
atom 2.2440988255750609 3.0231391424123992 15.3604109266455566 Zn
    initial_charge         2.000000
atom 5.2362305930084752 4.3187702034462827 15.3604109266455566 Zn
    initial_charge         2.000000
atom 8.2283623604418921 5.6144012644801684 15.3604109266455584 Zn
    initial_charge         2.000000
atom 11.2204941278753054 6.9100323255140523 15.3604109266455602 Zn
    initial_charge         2.000000
atom 14.2126258953087241 8.2056633865479380 15.3604109266455584 Zn
    initial_charge         2.000000
atom 17.2047576627421392 9.5012944475818237 15.3604109266455584 Zn
    initial_charge         2.000000
atom 16.8307411918129581 6.2622167949971121 15.3604109266455602 Zn
    initial_charge         2.000000
atom 5.6102470639376518 7.5578478560309952 15.3604109266455602 Zn
    initial_charge         2.000000
atom 8.6023788313710661 8.8534789170648800 15.3604109266455584 Zn
    initial_charge         2.000000
atom 11.5945105988044812 10.1491099780987657 15.3604109266455584 Zn
    initial_charge         2.000000
atom 14.5866423662378981 11.4447410391326514 15.3604109266455584 Zn
    initial_charge         2.000000
atom 10.4724611860169574 0.4318770203446345 15.3604109266455584 Zn
    initial_charge         2.000000
atom 20.1968894301755491 10.7969255086157112 15.3604109266455584 Zn
    initial_charge         2.000000
atom 8.9763953023002419 12.0925565696495916 15.3604109266455584 Zn
    initial_charge         2.000000
atom 4.8622141220793003 1.0796925508615731 15.3604109266455566 Zn
    initial_charge         2.000000
atom 9.7244282441585987 2.1593851017231440 17.9826959266455582 Zn
    initial_charge         2.000000
atom 12.7165600115920174 3.4550161627570288 17.9826959266455582 Zn
    initial_charge         2.000000
atom 15.7086917790254255 4.7506472237909119 17.9826959266455582 Zn
    initial_charge         2.000000
atom 1.1220494127875305 1.5115695712062007 17.9826959266455582 Zn
    initial_charge         2.000000
atom 4.1141811802209460 2.8072006322400855 17.9826959266455582 Zn
    initial_charge         2.000000
atom 7.1063129476543594 4.1028316932739699 17.9826959266455582 Zn
    initial_charge         2.000000
atom 10.0984447150877763 5.3984627543078556 17.9826959266455582 Zn
    initial_charge         2.000000
atom 13.0905764825211897 6.6940938153417395 17.9826959266455582 Zn
    initial_charge         2.000000
atom 16.0827082499546066 7.9897248763756226 17.9826959266455582 Zn
    initial_charge         2.000000
atom 19.0748400173880199 9.2853559374095092 17.9826959266455582 Zn
    initial_charge         2.000000
atom 4.4881976511501209 6.0462782848247976 17.9826959266455582 Zn
    initial_charge         2.000000
atom 7.4803294185835369 7.3419093458586824 17.9826959266455582 Zn
    initial_charge         2.000000
atom 10.4724611860169503 8.6375404068925654 17.9826959266455582 Zn
    initial_charge         2.000000
atom 13.4645929534503654 9.9331714679264511 17.9826959266455582 Zn
    initial_charge         2.000000
atom 16.4567247208837806 11.2288025289603368 17.9826959266455582 Zn
    initial_charge         2.000000
atom 12.3425435406628381 0.2159385101723201 17.9826959266455582 Zn
    initial_charge         2.000000
atom 7.8543458895127110 10.5809869984433931 17.9826959266455582 Zn
    initial_charge         2.000000
atom 10.8464776569461261 11.8766180594772770 17.9826959266455582 Zn
    initial_charge         2.000000
atom 6.7322964767251854 0.8637540406892610 17.9826959266455582 Zn
    initial_charge         2.000000
atom 7.8543458895127136 2.3753236118954573 20.6049809266455561 Zn
    constrain_relaxation .true.
    initial_charge         2.000000
atom 10.8464776569461314 3.6709546729293425 20.6049809266455561 Zn
    constrain_relaxation .true.
    initial_charge         2.000000
atom 13.8386094243795430 4.9665857339632273 20.6049809266455561 Zn
    constrain_relaxation .true.
    initial_charge         2.000000
atom 13.4645929534503672 1.7275080813785149 20.6049809266455561 Zn
    constrain_relaxation .true.
    initial_charge         2.000000
atom 2.2440988255750609 3.0231391424123997 20.6049809266455561 Zn
    constrain_relaxation .true.
    initial_charge         2.000000
atom 5.2362305930084752 4.3187702034462836 20.6049809266455561 Zn
    constrain_relaxation .true.
    initial_charge         2.000000
atom 8.2283623604418921 5.6144012644801693 20.6049809266455561 Zn
    constrain_relaxation .true.
    initial_charge         2.000000
atom 11.2204941278753054 6.9100323255140541 20.6049809266455561 Zn
    constrain_relaxation .true.
    initial_charge         2.000000
atom 14.2126258953087223 8.2056633865479398 20.6049809266455561 Zn
    constrain_relaxation .true.
    initial_charge         2.000000
atom 17.2047576627421392 9.5012944475818255 20.6049809266455561 Zn
    constrain_relaxation .true.
    initial_charge         2.000000
atom 16.8307411918129581 6.2622167949971139 20.6049809266455561 Zn
    constrain_relaxation .true.
    initial_charge         2.000000
atom 5.6102470639376518 7.5578478560309970 20.6049809266455561 Zn
    constrain_relaxation .true.
    initial_charge         2.000000
atom 8.6023788313710661 8.8534789170648818 20.6049809266455561 Zn
    constrain_relaxation .true.
    initial_charge         2.000000
atom 11.5945105988044830 10.1491099780987675 20.6049809266455561 Zn
    constrain_relaxation .true.
    initial_charge         2.000000
atom 14.5866423662378981 11.4447410391326514 20.6049809266455561 Zn
    constrain_relaxation .true.
    initial_charge         2.000000
atom 10.4724611860169556 0.4318770203446352 20.6049809266455561 Zn
    constrain_relaxation .true.
    initial_charge         2.000000
atom 20.1968894301755491 10.7969255086157112 20.6049809266455597 Zn
    constrain_relaxation .true.
    initial_charge         2.000000
atom 8.9763953023002419 12.0925565696495916 20.6049809266455561 Zn
    constrain_relaxation .true.
    initial_charge         2.000000
atom 4.8622141220793003 1.0796925508615736 20.6049809266455561 Zn
    constrain_relaxation .true.
    initial_charge         2.000000
atom 9.7244282441585987 2.1593851017231449 23.2272659266455541 Zn
    constrain_relaxation .true.
    initial_charge         2.000000
atom 12.7165600115920174 3.4550161627570297 23.2272659266455577 Zn
    constrain_relaxation .true.
    initial_charge         2.000000
atom 15.7086917790254272 4.7506472237909119 23.2272659266455612 Zn
    constrain_relaxation .true.
    initial_charge         2.000000
atom 1.1220494127875305 1.5115695712062014 23.2272659266455541 Zn
    constrain_relaxation .true.
    initial_charge         2.000000
atom 4.1141811802209460 2.8072006322400864 23.2272659266455541 Zn
    constrain_relaxation .true.
    initial_charge         2.000000
atom 7.1063129476543594 4.1028316932739708 23.2272659266455541 Zn
    constrain_relaxation .true.
    initial_charge         2.000000
atom 10.0984447150877745 5.3984627543078565 23.2272659266455612 Zn
    constrain_relaxation .true.
    initial_charge         2.000000
atom 13.0905764825211897 6.6940938153417404 23.2272659266455612 Zn
    constrain_relaxation .true.
    initial_charge         2.000000
atom 16.0827082499546066 7.9897248763756235 23.2272659266455577 Zn
    constrain_relaxation .true.
    initial_charge         2.000000
atom 19.0748400173880235 9.2853559374095092 23.2272659266455577 Zn
    constrain_relaxation .true.
    initial_charge         2.000000
atom 4.4881976511501209 6.0462782848247985 23.2272659266455612 Zn
    constrain_relaxation .true.
    initial_charge         2.000000
atom 7.4803294185835369 7.3419093458586833 23.2272659266455612 Zn
    constrain_relaxation .true.
    initial_charge         2.000000
atom 10.4724611860169503 8.6375404068925672 23.2272659266455577 Zn
    constrain_relaxation .true.
    initial_charge         2.000000
atom 13.4645929534503672 9.9331714679264529 23.2272659266455577 Zn
    constrain_relaxation .true.
    initial_charge         2.000000
atom 16.4567247208837841 11.2288025289603368 23.2272659266455506 Zn
    constrain_relaxation .true.
    initial_charge         2.000000
atom 12.3425435406628399 0.2159385101723207 23.2272659266455506 Zn
    constrain_relaxation .true.
    initial_charge         2.000000
atom 7.8543458895127110 10.5809869984433949 23.2272659266455541 Zn
    constrain_relaxation .true.
    initial_charge         2.000000
atom 10.8464776569461261 11.8766180594772788 23.2272659266455506 Zn
    constrain_relaxation .true.
    initial_charge         2.000000
atom 6.7322964767251845 0.8637540406892616 23.2272659266455506 Zn
    constrain_relaxation .true.
    initial_charge         2.000000
atom 7.8543458895127136 2.3753236118954577 25.8495509266455556 Zn
    initial_charge         2.000000
atom 10.8464776569461332 3.6709546729293430 25.8495509266455556 Zn
    initial_charge         2.000000
atom 13.8386094243795448 4.9665857339632273 25.8495509266455556 Zn
    initial_charge         2.000000
atom 13.4645929534503672 1.7275080813785155 25.8495509266455592 Zn
    initial_charge         2.000000
atom 2.2440988255750614 3.0231391424124006 25.8495509266455521 Zn
    initial_charge         2.000000
atom 5.2362305930084752 4.3187702034462845 25.8495509266455556 Zn
    initial_charge         2.000000
atom 8.2283623604418921 5.6144012644801702 25.8495509266455556 Zn
    initial_charge         2.000000
atom 11.2204941278753054 6.9100323255140541 25.8495509266455556 Zn
    initial_charge         2.000000
atom 14.2126258953087223 8.2056633865479398 25.8495509266455556 Zn
    initial_charge         2.000000
atom 17.2047576627421392 9.5012944475818255 25.8495509266455556 Zn
    initial_charge         2.000000
atom 16.8307411918129581 6.2622167949971139 25.8495509266455556 Zn
    initial_charge         2.000000
atom 5.6102470639376518 7.5578478560309970 25.8495509266455556 Zn
    initial_charge         2.000000
atom 8.6023788313710661 8.8534789170648818 25.8495509266455556 Zn
    initial_charge         2.000000
atom 11.5945105988044812 10.1491099780987675 25.8495509266455556 Zn
    initial_charge         2.000000
atom 14.5866423662378981 11.4447410391326514 25.8495509266455556 Zn
    initial_charge         2.000000
atom 10.4724611860169556 0.4318770203446358 25.8495509266455592 Zn
    initial_charge         2.000000
atom 20.1968894301755491 10.7969255086157112 25.8495509266455556 Zn
    initial_charge         2.000000
atom 8.9763953023002419 12.0925565696495916 25.8495509266455556 Zn
    initial_charge         2.000000
atom 4.8622141220792994 1.0796925508615742 25.8495509266455592 Zn
    initial_charge         2.000000
atom 9.7244282441585987 2.1593851017231449 28.4718359266455572 Zn
    initial_charge         2.000000
atom 12.7165600115920174 3.4550161627570302 28.4718359266455572 Zn
    initial_charge         2.000000
atom 15.7086917790254272 4.7506472237909128 28.4718359266455572 Zn
    initial_charge         2.000000
atom 1.1220494127875307 1.5115695712062021 28.4718359266455572 Zn
    initial_charge         2.000000
atom 4.1141811802209460 2.8072006322400869 28.4718359266455572 Zn
    initial_charge         2.000000
atom 7.1063129476543594 4.1028316932739717 28.4718359266455572 Zn
    initial_charge         2.000000
atom 10.0984447150877745 5.3984627543078574 28.4718359266455572 Zn
    initial_charge         2.000000
atom 13.0905764825211897 6.6940938153417404 28.4718359266455572 Zn
    initial_charge         2.000000
atom 16.0827082499546066 7.9897248763756235 28.4718359266455572 Zn
    initial_charge         2.000000
atom 19.0748400173880235 9.2853559374095092 28.4718359266455572 Zn
    initial_charge         2.000000
atom 4.4881976511501209 6.0462782848247993 28.4718359266455572 Zn
    initial_charge         2.000000
atom 7.4803294185835361 7.3419093458586833 28.4718359266455572 Zn
    initial_charge         2.000000
atom 10.4724611860169503 8.6375404068925672 28.4718359266455572 Zn
    initial_charge         2.000000
atom 13.4645929534503672 9.9331714679264529 28.4718359266455572 Zn
    initial_charge         2.000000
atom 16.4567247208837841 11.2288025289603368 28.4718359266455572 Zn
    initial_charge         2.000000
atom 12.3425435406628399 0.2159385101723214 28.4718359266455572 Zn
    initial_charge         2.000000
atom 7.8543458895127110 10.5809869984433949 28.4718359266455572 Zn
    initial_charge         2.000000
atom 10.8464776569461261 11.8766180594772788 28.4718359266455572 Zn
    initial_charge         2.000000
atom 6.7322964767251854 0.8637540406892624 28.4718359266455572 Zn
    initial_charge         2.000000
atom 9.4750839302058090 8.2056633865479345 32.4651920922455588 Pd
atom 7.1063129476543567 4.1028316932739664 32.4651920922455588 Pd
atom 9.4750839302058090 5.4704422576986227 32.4651920922455588 Pd
atom 11.8438549127572621 6.8380528221232808 32.4651920922455659 Pd
atom 14.2126258953087170 8.2056633865479363 32.4651920922455588 Pd
atom 9.4750839302058143 2.7352211288493100 32.4651920922455588 Pd
atom 11.8438549127572657 4.1028316932739664 32.4651920922455588 Pd
atom 14.2126258953087188 5.4704422576986236 32.4651920922455588 Pd
atom 16.5813968778601719 6.8380528221232808 32.4651920922455659 Pd
atom 18.9501678604116215 8.2056633865479363 32.4651920922455588 Pd
atom 14.2126258953087188 2.7352211288493100 32.4651920922455659 Pd
atom 16.5813968778601684 4.1028316932739664 32.4651920922455659 Pd
atom 4.7375419651029036 5.4704422576986227 32.4651920922455659 Pd
atom 7.1063129476543541 6.8380528221232808 32.4651920922455659 Pd
atom 4.7375419651029018 2.7352211288493100 32.4651920922455659 Pd
atom 6.3167226201372042 8.2056633865479363 34.7079784949449675 Pd
atom 3.9479516375857511 4.1028316932739664 34.7079784949449675 Pd
atom 6.3167226201372051 5.4704422576986227 34.7079784949449675 Pd
atom 8.6854936026886573 6.8380528221232790 34.7079784949449675 Pd
atom 11.0542645852401087 8.2056633865479363 34.7079784949449675 Pd
atom 6.3167226201372060 2.7352211288493100 34.7079784949449675 Pd
atom 8.6854936026886609 4.1028316932739664 34.7079784949449675 Pd
atom 11.0542645852401122 5.4704422576986227 34.7079784949449675 Pd
atom 13.4230355677915654 6.8380528221232808 34.7079784949449675 Pd
atom 15.7918065503430185 8.2056633865479363 34.7079784949449675 Pd
atom 11.0542645852401122 2.7352211288493105 34.7079784949449675 Pd
atom 13.4230355677915654 4.1028316932739664 34.7079784949449675 Pd
atom 15.7918065503430185 5.4704422576986227 34.7079784949449675 Pd
atom 18.1605775328944716 6.8380528221232790 34.7079784949449675 Pd
atom 15.7918065503430203 2.7352211288493105 34.7079784949449675 Pd
atom 1.1220494127875305 1.5115695712062005 14.7314820922455567 O
    initial_charge        -2.000000
atom 4.1141811802209460 2.8072006322400855 14.7314820922455567 O
    initial_charge        -2.000000
atom 7.1063129476543594 4.1028316932739690 14.7314820922455567 O
    initial_charge        -2.000000
atom 10.0984447150877745 5.3984627543078556 14.7314820922455567 O
    initial_charge        -2.000000
atom 13.0905764825211914 6.6940938153417395 14.7314820922455585 O
    initial_charge        -2.000000
atom 16.0827082499546066 7.9897248763756226 14.7314820922455603 O
    initial_charge        -2.000000
atom 4.4881976511501209 6.0462782848247967 14.7314820922455567 O
    initial_charge        -2.000000
atom 7.4803294185835369 7.3419093458586824 14.7314820922455567 O
    initial_charge        -2.000000
atom 10.4724611860169503 8.6375404068925654 14.7314820922455603 O
    initial_charge        -2.000000
atom 13.4645929534503672 9.9331714679264511 14.7314820922455603 O
    initial_charge        -2.000000
atom 16.4567247208837841 11.2288025289603368 14.7314820922455585 O
    initial_charge        -2.000000
atom 12.3425435406628399 0.2159385101723197 14.7314820922455567 O
    initial_charge        -2.000000
atom 7.8543458895127110 10.5809869984433931 14.7314820922455603 O
    initial_charge        -2.000000
atom 6.7322964767251854 0.8637540406892606 14.7314820922455567 O
    initial_charge        -2.000000
atom 7.8543458895127136 2.3753236118954564 17.3537670922455582 O
    initial_charge        -2.000000
atom 10.8464776569461314 3.6709546729293425 17.3537670922455582 O
    initial_charge        -2.000000
atom 13.8386094243795430 4.9665857339632273 17.3537670922455547 O
    initial_charge        -2.000000
atom 13.4645929534503654 1.7275080813785142 17.3537670922455582 O
    initial_charge        -2.000000
atom 2.2440988255750609 3.0231391424123992 17.3537670922455582 O
    initial_charge        -2.000000
atom 5.2362305930084752 4.3187702034462836 17.3537670922455582 O
    initial_charge        -2.000000
atom 8.2283623604418921 5.6144012644801693 17.3537670922455547 O
    initial_charge        -2.000000
atom 11.2204941278753054 6.9100323255140523 17.3537670922455547 O
    initial_charge        -2.000000
atom 14.2126258953087223 8.2056633865479380 17.3537670922455547 O
    initial_charge        -2.000000
atom 17.2047576627421392 9.5012944475818237 17.3537670922455582 O
    initial_charge        -2.000000
atom 16.8307411918129581 6.2622167949971121 17.3537670922455582 O
    initial_charge        -2.000000
atom 5.6102470639376518 7.5578478560309952 17.3537670922455547 O
    initial_charge        -2.000000
atom 8.6023788313710661 8.8534789170648800 17.3537670922455547 O
    initial_charge        -2.000000
atom 11.5945105988044812 10.1491099780987657 17.3537670922455547 O
    initial_charge        -2.000000
atom 14.5866423662378963 11.4447410391326514 17.3537670922455582 O
    initial_charge        -2.000000
atom 10.4724611860169556 0.4318770203446348 17.3537670922455547 O
    initial_charge        -2.000000
atom 20.1968894301755491 10.7969255086157112 17.3537670922455582 O
    initial_charge        -2.000000
atom 8.9763953023002419 12.0925565696495916 17.3537670922455547 O
    initial_charge        -2.000000
atom 4.8622141220793003 1.0796925508615733 17.3537670922455547 O
    initial_charge        -2.000000
atom 9.7244282441585987 2.1593851017231440 19.9760520922455562 O
    constrain_relaxation .true.
    initial_charge        -2.000000
atom 12.7165600115920174 3.4550161627570288 19.9760520922455562 O
    constrain_relaxation .true.
    initial_charge        -2.000000
atom 15.7086917790254255 4.7506472237909119 19.9760520922455562 O
    constrain_relaxation .true.
    initial_charge        -2.000000
atom 1.1220494127875305 1.5115695712062012 19.9760520922455562 O
    constrain_relaxation .true.
    initial_charge        -2.000000
atom 4.1141811802209451 2.8072006322400855 19.9760520922455562 O
    constrain_relaxation .true.
    initial_charge        -2.000000
atom 7.1063129476543594 4.1028316932739699 19.9760520922455562 O
    constrain_relaxation .true.
    initial_charge        -2.000000
atom 10.0984447150877763 5.3984627543078556 19.9760520922455562 O
    constrain_relaxation .true.
    initial_charge        -2.000000
atom 13.0905764825211897 6.6940938153417404 19.9760520922455562 O
    constrain_relaxation .true.
    initial_charge        -2.000000
atom 16.0827082499546066 7.9897248763756235 19.9760520922455562 O
    constrain_relaxation .true.
    initial_charge        -2.000000
atom 19.0748400173880235 9.2853559374095092 19.9760520922455562 O
    constrain_relaxation .true.
    initial_charge        -2.000000
atom 4.4881976511501209 6.0462782848247976 19.9760520922455562 O
    constrain_relaxation .true.
    initial_charge        -2.000000
atom 7.4803294185835369 7.3419093458586833 19.9760520922455562 O
    constrain_relaxation .true.
    initial_charge        -2.000000
atom 10.4724611860169503 8.6375404068925672 19.9760520922455562 O
    constrain_relaxation .true.
    initial_charge        -2.000000
atom 13.4645929534503672 9.9331714679264529 19.9760520922455562 O
    constrain_relaxation .true.
    initial_charge        -2.000000
atom 16.4567247208837841 11.2288025289603368 19.9760520922455562 O
    constrain_relaxation .true.
    initial_charge        -2.000000
atom 12.3425435406628399 0.2159385101723203 19.9760520922455527 O
    constrain_relaxation .true.
    initial_charge        -2.000000
atom 7.8543458895127118 10.5809869984433949 19.9760520922455562 O
    constrain_relaxation .true.
    initial_charge        -2.000000
atom 10.8464776569461279 11.8766180594772788 19.9760520922455562 O
    constrain_relaxation .true.
    initial_charge        -2.000000
atom 6.7322964767251854 0.8637540406892613 19.9760520922455527 O
    constrain_relaxation .true.
    initial_charge        -2.000000
atom 7.8543458895127136 2.3753236118954573 22.5983370922455542 O
    constrain_relaxation .true.
    initial_charge        -2.000000
atom 10.8464776569461332 3.6709546729293430 22.5983370922455542 O
    constrain_relaxation .true.
    initial_charge        -2.000000
atom 13.8386094243795448 4.9665857339632273 22.5983370922455542 O
    constrain_relaxation .true.
    initial_charge        -2.000000
atom 13.4645929534503672 1.7275080813785149 22.5983370922455542 O
    constrain_relaxation .true.
    initial_charge        -2.000000
atom 2.2440988255750609 3.0231391424123997 22.5983370922455542 O
    constrain_relaxation .true.
    initial_charge        -2.000000
atom 5.2362305930084752 4.3187702034462845 22.5983370922455542 O
    constrain_relaxation .true.
    initial_charge        -2.000000
atom 8.2283623604418921 5.6144012644801702 22.5983370922455542 O
    constrain_relaxation .true.
    initial_charge        -2.000000
atom 11.2204941278753054 6.9100323255140541 22.5983370922455542 O
    constrain_relaxation .true.
    initial_charge        -2.000000
atom 14.2126258953087223 8.2056633865479398 22.5983370922455613 O
    constrain_relaxation .true.
    initial_charge        -2.000000
atom 17.2047576627421392 9.5012944475818255 22.5983370922455578 O
    constrain_relaxation .true.
    initial_charge        -2.000000
atom 16.8307411918129581 6.2622167949971139 22.5983370922455542 O
    constrain_relaxation .true.
    initial_charge        -2.000000
atom 5.6102470639376518 7.5578478560309970 22.5983370922455542 O
    constrain_relaxation .true.
    initial_charge        -2.000000
atom 8.6023788313710661 8.8534789170648818 22.5983370922455613 O
    constrain_relaxation .true.
    initial_charge        -2.000000
atom 11.5945105988044830 10.1491099780987675 22.5983370922455542 O
    constrain_relaxation .true.
    initial_charge        -2.000000
atom 14.5866423662378981 11.4447410391326514 22.5983370922455578 O
    constrain_relaxation .true.
    initial_charge        -2.000000
atom 10.4724611860169556 0.4318770203446354 22.5983370922455542 O
    constrain_relaxation .true.
    initial_charge        -2.000000
atom 20.1968894301755491 10.7969255086157112 22.5983370922455578 O
    constrain_relaxation .true.
    initial_charge        -2.000000
atom 8.9763953023002419 12.0925565696495916 22.5983370922455542 O
    constrain_relaxation .true.
    initial_charge        -2.000000
atom 4.8622141220793003 1.0796925508615740 22.5983370922455542 O
    constrain_relaxation .true.
    initial_charge        -2.000000
atom 9.7244282441585987 2.1593851017231449 25.2206220922455593 O
    initial_charge        -2.000000
atom 12.7165600115920174 3.4550161627570297 25.2206220922455557 O
    initial_charge        -2.000000
atom 15.7086917790254272 4.7506472237909119 25.2206220922455557 O
    initial_charge        -2.000000
atom 1.1220494127875307 1.5115695712062018 25.2206220922455593 O
    initial_charge        -2.000000
atom 4.1141811802209460 2.8072006322400864 25.2206220922455593 O
    initial_charge        -2.000000
atom 7.1063129476543594 4.1028316932739708 25.2206220922455522 O
    initial_charge        -2.000000
atom 10.0984447150877745 5.3984627543078565 25.2206220922455557 O
    initial_charge        -2.000000
atom 13.0905764825211897 6.6940938153417404 25.2206220922455557 O
    initial_charge        -2.000000
atom 16.0827082499546066 7.9897248763756235 25.2206220922455557 O
    initial_charge        -2.000000
atom 19.0748400173880235 9.2853559374095092 25.2206220922455557 O
    initial_charge        -2.000000
atom 4.4881976511501209 6.0462782848247985 25.2206220922455522 O
    initial_charge        -2.000000
atom 7.4803294185835369 7.3419093458586833 25.2206220922455522 O
    initial_charge        -2.000000
atom 10.4724611860169503 8.6375404068925672 25.2206220922455557 O
    initial_charge        -2.000000
atom 13.4645929534503672 9.9331714679264529 25.2206220922455557 O
    initial_charge        -2.000000
atom 16.4567247208837841 11.2288025289603368 25.2206220922455557 O
    initial_charge        -2.000000
atom 12.3425435406628399 0.2159385101723209 25.2206220922455593 O
    initial_charge        -2.000000
atom 7.8543458895127110 10.5809869984433949 25.2206220922455557 O
    initial_charge        -2.000000
atom 10.8464776569461261 11.8766180594772788 25.2206220922455557 O
    initial_charge        -2.000000
atom 6.7322964767251854 0.8637540406892620 25.2206220922455593 O
    initial_charge        -2.000000
atom 7.8543458895127136 2.3753236118954577 27.8429070922455537 O
    initial_charge        -2.000000
atom 10.8464776569461332 3.6709546729293439 27.8429070922455537 O
    initial_charge        -2.000000
atom 13.8386094243795448 4.9665857339632282 27.8429070922455537 O
    initial_charge        -2.000000
atom 13.4645929534503672 1.7275080813785155 27.8429070922455537 O
    initial_charge        -2.000000
atom 2.2440988255750609 3.0231391424124006 27.8429070922455537 O
    initial_charge        -2.000000
atom 5.2362305930084752 4.3187702034462845 27.8429070922455537 O
    initial_charge        -2.000000
atom 8.2283623604418921 5.6144012644801711 27.8429070922455537 O
    initial_charge        -2.000000
atom 11.2204941278753054 6.9100323255140541 27.8429070922455537 O
    initial_charge        -2.000000
atom 14.2126258953087223 8.2056633865479398 27.8429070922455537 O
    initial_charge        -2.000000
atom 17.2047576627421392 9.5012944475818255 27.8429070922455537 O
    initial_charge        -2.000000
atom 16.8307411918129581 6.2622167949971139 27.8429070922455537 O
    initial_charge        -2.000000
atom 5.6102470639376518 7.5578478560309970 27.8429070922455537 O
    initial_charge        -2.000000
atom 8.6023788313710661 8.8534789170648818 27.8429070922455537 O
    initial_charge        -2.000000
atom 11.5945105988044812 10.1491099780987675 27.8429070922455537 O
    initial_charge        -2.000000
atom 14.5866423662378981 11.4447410391326514 27.8429070922455537 O
    initial_charge        -2.000000
atom 10.4724611860169574 0.4318770203446360 27.8429070922455537 O
    initial_charge        -2.000000
atom 20.1968894301755491 10.7969255086157112 27.8429070922455537 O
    initial_charge        -2.000000
atom 8.9763953023002419 12.0925565696495916 27.8429070922455537 O
    initial_charge        -2.000000
atom 4.8622141220793003 1.0796925508615745 27.8429070922455537 O
    initial_charge        -2.000000
atom 1.1220494127875305 1.5115695712062023 30.4651920922455552 O
    initial_charge        -2.000000
atom 4.1141811802209460 2.8072006322400869 30.4651920922455552 O
    initial_charge        -2.000000
atom 7.1063129476543594 4.1028316932739717 30.4651920922455552 O
    initial_charge        -2.000000
atom 10.0984447150877745 5.3984627543078574 30.4651920922455552 O
    initial_charge        -2.000000
atom 13.0905764825211914 6.6940938153417422 30.4651920922455552 O
    initial_charge        -2.000000
atom 16.0827082499546066 7.9897248763756252 30.4651920922455552 O
    initial_charge        -2.000000
atom 4.4881976511501209 6.0462782848247993 30.4651920922455552 O
    initial_charge        -2.000000
atom 7.4803294185835369 7.3419093458586850 30.4651920922455552 O
    initial_charge        -2.000000
atom 10.4724611860169503 8.6375404068925690 30.4651920922455552 O
    initial_charge        -2.000000
atom 13.4645929534503672 9.9331714679264547 30.4651920922455552 O
    initial_charge        -2.000000
atom 16.4567247208837841 11.2288025289603386 30.4651920922455623 O
    initial_charge        -2.000000
atom 12.3425435406628399 0.2159385101723216 30.4651920922455552 O
    initial_charge        -2.000000
atom 7.8543458895127118 10.5809869984433949 30.4651920922455552 O
    initial_charge        -2.000000
atom 6.7322964767251854 0.8637540406892625 30.4651920922455552 O
    initial_charge        -2.000000
