#=======================================================
# FHI-aims file: /nfshome/store03/users/c.c1809139/PhD/Aug_2023/Pd/bulk/nanoparticle/Pd10_np.in
# Created using the Atomic Simulation Environment (ASE)
# Wed Dec 13 11:13:51 2023
#=======================================================
lattice_vector 5.4984599999999997 0.0000000000000000 0.0000000000000000 
lattice_vector 2.7492300000000003 4.7618060416925836 0.0000000000000000 
lattice_vector 0.0000000000000000 0.0000000000000000 15.7132000000000005 
atom 4.1238467604424356 2.3809028230937579 6.7197293206613162 Pd
atom 1.3746164477951364 2.3809029481552848 6.7197279552191445 Pd
atom 2.7492317647314195 -0.0000001211111045 6.7197295168708431 Pd
atom 5.4984861862652483 3.1745531806473144 8.9934705651491544 Pd
atom 4.1238712183208186 0.7936501146994819 8.9934705316178274 Pd
atom 2.7492555369501988 3.1745535235863569 8.9934722288694058 Pd
atom 2.7492315812111539 4.7618060241267930 6.7197284345684771 Pd
atom 5.4984617647314202 4.7618059205814793 6.7197295168708431 Pd
atom 5.4984615812111537 -0.0000000175657903 6.7197284345684771 Pd
atom 6.8730764477951363 2.3809029481552848 6.7197279552191445 Pd
