#=======================================================
# FHI-aims file: ./geometry.in
# Created using the Atomic Simulation Environment (ASE)
# Sun Aug 20 19:41:00 2023
#=======================================================
lattice_vector 13.0879999999999992 0.0000000000000000 0.0000000000000000 
lattice_vector 0.0000000000000000 10.5478199999999998 0.0000000000000000 
lattice_vector 0.0000000000000000 0.0000000000000000 31.1700000000000017 
atom_frac 0.0000000000000000 0.4986550000000000 0.3030300000000000 Zn
atom_frac 0.0000000000000000 0.1925950000000000 0.3030300000000000 O
atom_frac 0.1249900000000000 0.4425950000000000 0.3333300000000000 O
atom_frac 0.1250000000000000 0.2486550000000000 0.3333300000000000 Zn
atom_frac 0.1250000000000000 0.4986550000000000 0.3939400000000000 Zn
atom_frac 0.1250000000000000 0.1925950000000000 0.3939400000000000 O
atom_frac 0.2499900000000000 0.4425950000000000 0.4242400000000000 O
atom_frac 0.0000000000000000 0.2486550000000000 0.4242400000000000 Zn
atom_frac 0.0000000000000000 0.4986550000000000 0.4848499999999997 Zn
atom_frac 0.0000000000000000 0.1925950000000000 0.4848499999999997 O
atom_frac 0.1249900000000000 0.4425950000000000 0.5151500000000000 O
atom_frac 0.1250000000000000 0.2486550000000000 0.5151500000000000 Zn
atom_frac 0.1250000000000000 0.4986550000000000 0.5757600000000000 Zn
atom_frac 0.1250000000000000 0.1925950000000000 0.5757600000000000 O
atom_frac 0.2525760031749413 0.4432259293742574 0.6080301086540465 O
atom_frac -0.0000202857778081 0.2544620906161866 0.6036059819166631 Zn
atom_frac 0.0000758793009880 0.5049505765627518 0.6692754350894359 Zn
atom_frac -0.0000662969067996 0.1938041352402843 0.6661218605828475 O
atom_frac 0.1252846061694375 0.4452310712745957 0.6947290084785738 O
atom_frac 0.1247513821473796 0.2713644419135450 0.6855981960668913 Zn
atom_frac 0.0000000000000000 0.9986550000000002 0.3030300000000000 Zn
atom_frac 0.0000000000000000 0.6925950000000000 0.3030300000000000 O
atom_frac 0.1249900000000000 0.9425950000000000 0.3333300000000000 O
atom_frac 0.1250000000000000 0.7486550000000000 0.3333300000000000 Zn
atom_frac 0.1250000000000000 0.9986550000000002 0.3939400000000000 Zn
atom_frac 0.1250000000000000 0.6925950000000000 0.3939400000000000 O
atom_frac 0.2499900000000000 0.9425950000000000 0.4242400000000000 O
atom_frac 0.0000000000000000 0.7486550000000000 0.4242400000000000 Zn
atom_frac 0.0000000000000000 0.9986550000000002 0.4848499999999997 Zn
atom_frac 0.0000000000000000 0.6925950000000000 0.4848499999999997 O
atom_frac 0.1249900000000000 0.9425950000000000 0.5151500000000000 O
atom_frac 0.1250000000000000 0.7486550000000000 0.5151500000000000 Zn
atom_frac 0.1250000000000000 0.9986550000000002 0.5757600000000000 Zn
atom_frac 0.1250000000000000 0.6925950000000000 0.5757600000000000 O
atom_frac 0.2500756368336902 0.9429024527901007 0.6060633734506979 O
atom_frac -0.0000168098711527 0.7551667135577322 0.6036139341440508 Zn
atom_frac 0.0000114786822748 1.0043254136594912 0.6693149651008939 Zn
atom_frac -0.0000244061334386 0.6932416180682399 0.6661280402729577 O
atom_frac 0.1252293173678991 0.9455656288575488 0.6947155202598408 O
atom_frac 0.1248274454793098 0.7721387323785713 0.6854863843594916 Zn
atom_frac 0.2500000000000000 0.4986550000000000 0.3030300000000000 Zn
atom_frac 0.2500000000000000 0.1925950000000000 0.3030300000000000 O
atom_frac 0.3749900000000000 0.4425950000000000 0.3333300000000000 O
atom_frac 0.3750000000000000 0.2486550000000000 0.3333300000000000 Zn
atom_frac 0.3750000000000000 0.4986550000000000 0.3939400000000000 Zn
atom_frac 0.3750000000000000 0.1925950000000000 0.3939400000000000 O
atom_frac 0.4999900000000000 0.4425950000000000 0.4242400000000000 O
atom_frac 0.2500000000000000 0.2486550000000000 0.4242400000000000 Zn
atom_frac 0.2500000000000000 0.4986550000000000 0.4848499999999997 Zn
atom_frac 0.2500000000000000 0.1925950000000000 0.4848499999999997 O
atom_frac 0.3749900000000000 0.4425950000000000 0.5151500000000000 O
atom_frac 0.3750000000000000 0.2486550000000000 0.5151500000000000 Zn
atom_frac 0.3750000000000000 0.4986550000000000 0.5757600000000000 Zn
atom_frac 0.3750000000000000 0.1925950000000000 0.5757600000000000 O
atom_frac 0.4984710131708629 0.4435401162400237 0.6091831260763608 O
atom_frac 0.2498330468023633 0.2530368152452275 0.6035130390006205 Zn
atom_frac 0.2482031277520963 0.5063629511335379 0.6703610807407452 Zn
atom_frac 0.2521706017239306 0.1973913732602911 0.6662418269029068 O
atom_frac 0.3746579989137905 0.2776346145743396 0.6891380937320253 Zn
atom_frac 0.2500000000000000 0.9986550000000002 0.3030300000000000 Zn
atom_frac 0.2500000000000000 0.6925950000000000 0.3030300000000000 O
atom_frac 0.3749900000000000 0.9425950000000000 0.3333300000000000 O
atom_frac 0.3750000000000000 0.7486550000000000 0.3333300000000000 Zn
atom_frac 0.3750000000000000 0.9986550000000002 0.3939400000000000 Zn
atom_frac 0.3750000000000000 0.6925950000000000 0.3939400000000000 O
atom_frac 0.4999900000000000 0.9425950000000000 0.4242400000000000 O
atom_frac 0.2500000000000000 0.7486550000000000 0.4242400000000000 Zn
atom_frac 0.2500000000000000 0.9986550000000002 0.4848499999999997 Zn
atom_frac 0.2500000000000000 0.6925950000000000 0.4848499999999997 O
atom_frac 0.3749900000000000 0.9425950000000000 0.5151500000000000 O
atom_frac 0.3750000000000000 0.7486550000000000 0.5151500000000000 Zn
atom_frac 0.3750000000000000 0.9986550000000002 0.5757600000000000 Zn
atom_frac 0.3750000000000000 0.6925950000000000 0.5757600000000000 O
atom_frac 0.5000252078097259 0.9429504071979610 0.6060893605459788 O
atom_frac 0.2498694028994663 0.7553845503010022 0.6034533844867803 Zn
atom_frac 0.2500972217638929 1.0044874890097939 0.6693635140255464 Zn
atom_frac 0.2508990245919615 0.6912335711618680 0.6661753047095379 O
atom_frac 0.3751039141945440 0.9458310635194999 0.6947234382750901 O
atom_frac 0.3746080955081516 0.7728410661854505 0.6858393774973800 Zn
atom_frac 0.5000000000000000 0.4986550000000000 0.3030300000000000 Zn
atom_frac 0.5000000000000000 0.1925950000000000 0.3030300000000000 O
atom_frac 0.6249900000000000 0.4425950000000000 0.3333300000000000 O
atom_frac 0.6250000000000000 0.2486550000000000 0.3333300000000000 Zn
atom_frac 0.6250000000000000 0.4986550000000000 0.3939400000000000 Zn
atom_frac 0.6250000000000000 0.1925950000000000 0.3939400000000000 O
atom_frac 0.7499899999999999 0.4425950000000000 0.4242400000000000 O
atom_frac 0.5000000000000000 0.2486550000000000 0.4242400000000000 Zn
atom_frac 0.5000000000000000 0.4986550000000000 0.4848499999999997 Zn
atom_frac 0.5000000000000000 0.1925950000000000 0.4848499999999997 O
atom_frac 0.6249900000000000 0.4425950000000000 0.5151500000000000 O
atom_frac 0.6250000000000000 0.2486550000000000 0.5151500000000000 Zn
atom_frac 0.6250000000000000 0.4986550000000000 0.5757600000000000 Zn
atom_frac 0.6250000000000000 0.1925950000000000 0.5757600000000000 O
atom_frac 0.7477845960697187 0.4431949800712484 0.6075361386914179 O
atom_frac 0.5000522095660730 0.2514490832200630 0.6034574865249609 Zn
atom_frac 0.4969667828700349 0.5082279683520313 0.6676176456311853 Zn
atom_frac 0.4981399111153645 0.1994294610484103 0.6661206009700895 O
atom_frac 0.5924049368311056 0.4349225088322252 0.7110317796994277 O
atom_frac 0.6234842129982685 0.2830875928835574 0.6883824742948599 Zn
atom_frac 0.5000000000000000 0.9986550000000002 0.3030300000000000 Zn
atom_frac 0.5000000000000000 0.6925950000000000 0.3030300000000000 O
atom_frac 0.6249900000000000 0.9425950000000000 0.3333300000000000 O
atom_frac 0.6250000000000000 0.7486550000000000 0.3333300000000000 Zn
atom_frac 0.6250000000000000 0.9986550000000002 0.3939400000000000 Zn
atom_frac 0.6250000000000000 0.6925950000000000 0.3939400000000000 O
atom_frac 0.7499899999999999 0.9425950000000000 0.4242400000000000 O
atom_frac 0.5000000000000000 0.7486550000000000 0.4242400000000000 Zn
atom_frac 0.5000000000000000 0.9986550000000002 0.4848499999999997 Zn
atom_frac 0.5000000000000000 0.6925950000000000 0.4848499999999997 O
atom_frac 0.6249900000000000 0.9425950000000000 0.5151500000000000 O
atom_frac 0.6250000000000000 0.7486550000000000 0.5151500000000000 Zn
atom_frac 0.6250000000000000 0.9986550000000002 0.5757600000000000 Zn
atom_frac 0.6250000000000000 0.6925950000000000 0.5757600000000000 O
atom_frac 0.7499091497496303 0.9428225921846408 0.6060771506518829 O
atom_frac 0.4999376699823255 0.7558568149309491 0.6033236644743536 Zn
atom_frac 0.4999029998444573 1.0046331726410269 0.6693664557296410 Zn
atom_frac 0.4984768724409479 0.6914179951607761 0.6659040922722689 O
atom_frac 0.6247209755253078 0.9452902441124207 0.6946453997408767 O
atom_frac 0.6248132031168144 0.7716627836136231 0.6859393880985261 Zn
atom_frac 0.7500000000000000 0.4986550000000000 0.3030300000000000 Zn
atom_frac 0.7500000000000000 0.1925950000000000 0.3030300000000000 O
atom_frac 0.8749900000000000 0.4425950000000000 0.3333300000000000 O
atom_frac 0.8749999999999999 0.2486550000000000 0.3333300000000000 Zn
atom_frac 0.8749999999999999 0.4986550000000000 0.3939400000000000 Zn
atom_frac 0.8749999999999999 0.1925950000000000 0.3939400000000000 O
atom_frac 0.9999900000000002 0.4425950000000000 0.4242400000000000 O
atom_frac 0.7500000000000000 0.2486550000000000 0.4242400000000000 Zn
atom_frac 0.7500000000000000 0.4986550000000000 0.4848499999999997 Zn
atom_frac 0.7500000000000000 0.1925950000000000 0.4848499999999997 O
atom_frac 0.8749900000000000 0.4425950000000000 0.5151500000000000 O
atom_frac 0.8749999999999999 0.2486550000000000 0.5151500000000000 Zn
atom_frac 0.8749999999999999 0.4986550000000000 0.5757600000000000 Zn
atom_frac 0.8749999999999999 0.1925950000000000 0.5757600000000000 O
atom_frac 0.9999864327705904 0.4428403182101391 0.6061149465526484 O
atom_frac 0.7500737875536947 0.2533227688224836 0.6035562507841155 Zn
atom_frac 0.7499003711035800 0.5052254343834369 0.6693811822068093 Zn
atom_frac 0.7471431166175365 0.1975114107633170 0.6666647425743867 O
atom_frac 0.8724202237688515 0.4456290483818370 0.6949972870380752 O
atom_frac 0.8754809389325399 0.2711597722281150 0.6855113393082433 Zn
atom_frac 0.7500000000000000 0.9986550000000002 0.3030300000000000 Zn
atom_frac 0.7500000000000000 0.6925950000000000 0.3030300000000000 O
atom_frac 0.8749900000000000 0.9425950000000000 0.3333300000000000 O
atom_frac 0.8749999999999999 0.7486550000000000 0.3333300000000000 Zn
atom_frac 0.8749999999999999 0.9986550000000002 0.3939400000000000 Zn
atom_frac 0.8749999999999999 0.6925950000000000 0.3939400000000000 O
atom_frac 0.9999900000000002 0.9425950000000000 0.4242400000000000 O
atom_frac 0.7500000000000000 0.7486550000000000 0.4242400000000000 Zn
atom_frac 0.7500000000000000 0.9986550000000002 0.4848499999999997 Zn
atom_frac 0.7500000000000000 0.6925950000000000 0.4848499999999997 O
atom_frac 0.8749900000000000 0.9425950000000000 0.5151500000000000 O
atom_frac 0.8749999999999999 0.7486550000000000 0.5151500000000000 Zn
atom_frac 0.8749999999999999 0.9986550000000002 0.5757600000000000 Zn
atom_frac 0.8749999999999999 0.6925950000000000 0.5757600000000000 O
atom_frac 1.0000099878154101 0.9428325174271746 0.6059831340844124 O
atom_frac 0.7501524110265533 0.7553446380685784 0.6034355304014949 Zn
atom_frac 0.7498736895994496 1.0042830558333826 0.6693706943281491 Zn
atom_frac 0.7491024472165025 0.6905127717538891 0.6663567324684179 O
atom_frac 0.8747674264106162 0.9455597701869760 0.6947479037358825 O
atom_frac 0.8753254705980675 0.7722169842543982 0.6854846663916344 Zn
atom_frac 0.4856023567915581 0.4178758280185703 0.7468240566238599 C
atom_frac 0.4864741605577354 0.4377419167491260 0.8011850450055698 O
atom_frac 0.3790328849858282 0.4374209246196126 0.7115714249066082 O
