#=======================================================
# FHI-aims file: ./geometry.in
# Created using the Atomic Simulation Environment (ASE)
# Fri Mar  8 11:11:57 2024
#=======================================================
lattice_vector 13.0879999999999992 0.0000000000000000 0.0000000000000000 
lattice_vector 0.0000000000000000 15.8217299999999987 0.0000000000000000 
lattice_vector 0.0000000000000000 0.0000000000000000 31.1700000000000017 
atom_frac 0.0000000000000000 0.3324366666666667 0.3030300000000000 Zn
    constrain_relaxation .true.
atom_frac 0.0000000000000000 0.1283966666666667 0.3030300000000000 O
    constrain_relaxation .true.
atom_frac 0.1249900000000000 0.2950633333333333 0.3333300000000000 O
    constrain_relaxation .true.
atom_frac 0.1250000000000000 0.1657700000000000 0.3333300000000000 Zn
    constrain_relaxation .true.
atom_frac 0.1250000000000000 0.3324366666666667 0.3939400000000000 Zn
    constrain_relaxation .true.
atom_frac 0.1250000000000000 0.1283966666666667 0.3939400000000000 O
    constrain_relaxation .true.
atom_frac 0.2499900000000000 0.2950633333333333 0.4242400000000000 O
    constrain_relaxation .true.
atom_frac 0.0000000000000000 0.1657700000000000 0.4242400000000000 Zn
    constrain_relaxation .true.
atom_frac 0.0000000000000000 0.3324366666666667 0.4848499999999999 Zn
    constrain_relaxation .true.
atom_frac 0.0000000000000000 0.1283966666666667 0.4848499999999999 O
    constrain_relaxation .true.
atom_frac 0.1249900000000000 0.2950633333333333 0.5151500000000000 O
    constrain_relaxation .true.
atom_frac 0.1250000000000000 0.1657700000000000 0.5151500000000000 Zn
    constrain_relaxation .true.
atom_frac 0.1250000000000000 0.3324366666666667 0.5757600000000000 Zn
    constrain_relaxation .true.
atom_frac 0.1250000000000000 0.1283966666666667 0.5757600000000000 O
    constrain_relaxation .true.
atom_frac 0.2503341029282213 0.2938614941194421 0.6064130965155009 O
atom_frac 0.0001142626941266 0.1695977820668340 0.6040829362212712 Zn
atom_frac 0.0023361922522223 0.3378577168195486 0.6707069207767841 Zn
atom_frac 0.0018929637234131 0.1291025423445019 0.6668929314774079 O
atom_frac 0.1313580325316794 0.2976363716793435 0.6982194878067479 O
atom_frac 0.1259098526300962 0.1817879087819188 0.6862826695604249 Zn
atom_frac 0.0000000000000000 0.6657700000000001 0.3030300000000000 Zn
    constrain_relaxation .true.
atom_frac 0.0000000000000000 0.4617300000000000 0.3030300000000000 O
    constrain_relaxation .true.
atom_frac 0.1249900000000000 0.6283966666666667 0.3333300000000000 O
    constrain_relaxation .true.
atom_frac 0.1250000000000000 0.4991033333333333 0.3333300000000000 Zn
    constrain_relaxation .true.
atom_frac 0.1250000000000000 0.6657700000000001 0.3939400000000000 Zn
    constrain_relaxation .true.
atom_frac 0.1250000000000000 0.4617300000000000 0.3939400000000000 O
    constrain_relaxation .true.
atom_frac 0.2499900000000000 0.6283966666666667 0.4242400000000000 O
    constrain_relaxation .true.
atom_frac 0.0000000000000000 0.4991033333333333 0.4242400000000000 Zn
    constrain_relaxation .true.
atom_frac 0.0000000000000000 0.6657700000000001 0.4848499999999999 Zn
    constrain_relaxation .true.
atom_frac 0.0000000000000000 0.4617300000000000 0.4848499999999999 O
    constrain_relaxation .true.
atom_frac 0.1249900000000000 0.6283966666666667 0.5151500000000000 O
    constrain_relaxation .true.
atom_frac 0.1250000000000000 0.4991033333333333 0.5151500000000000 Zn
    constrain_relaxation .true.
atom_frac 0.1250000000000000 0.6657700000000001 0.5757600000000000 Zn
    constrain_relaxation .true.
atom_frac 0.1250000000000000 0.4617300000000000 0.5757600000000000 O
    constrain_relaxation .true.
atom_frac 0.2512620832829380 0.6294884384634966 0.6053222430554961 O
atom_frac 0.0011597833577034 0.5019383510953414 0.6053666552103348 Zn
atom_frac 0.0008464471302489 0.6660523275411374 0.6683843807101661 Zn
atom_frac 0.0035885858099940 0.4625860861862332 0.6675767630922727 O
atom_frac 0.1300909815956432 0.6312842592133034 0.6920838889868068 O
atom_frac 0.1312786158761974 0.5075481698137834 0.6957668094850183 Zn
atom_frac 0.0000000000000000 0.9991033333333335 0.3030300000000000 Zn
    constrain_relaxation .true.
atom_frac 0.0000000000000000 0.7950633333333335 0.3030300000000000 O
    constrain_relaxation .true.
atom_frac 0.1249900000000000 0.9617300000000001 0.3333300000000000 O
    constrain_relaxation .true.
atom_frac 0.1250000000000000 0.8324366666666667 0.3333300000000000 Zn
    constrain_relaxation .true.
atom_frac 0.1250000000000000 0.9991033333333335 0.3939400000000000 Zn
    constrain_relaxation .true.
atom_frac 0.1250000000000000 0.7950633333333335 0.3939400000000000 O
    constrain_relaxation .true.
atom_frac 0.2499900000000000 0.9617300000000001 0.4242400000000000 O
    constrain_relaxation .true.
atom_frac 0.0000000000000000 0.8324366666666667 0.4242400000000000 Zn
    constrain_relaxation .true.
atom_frac 0.0000000000000000 0.9991033333333335 0.4848499999999999 Zn
    constrain_relaxation .true.
atom_frac 0.0000000000000000 0.7950633333333335 0.4848499999999999 O
    constrain_relaxation .true.
atom_frac 0.1249900000000000 0.9617300000000001 0.5151500000000000 O
    constrain_relaxation .true.
atom_frac 0.1250000000000000 0.8324366666666667 0.5151500000000000 Zn
    constrain_relaxation .true.
atom_frac 0.1250000000000000 0.9991033333333335 0.5757600000000000 Zn
    constrain_relaxation .true.
atom_frac 0.1250000000000000 0.7950633333333335 0.5757600000000000 O
    constrain_relaxation .true.
atom_frac 0.2500368257247488 0.9607576532820812 0.6054025549278754 O
atom_frac -0.0001267275177286 0.8362118274077195 0.6038876332751104 Zn
atom_frac 0.0013315081096536 1.0011146663958352 0.6689966820905054 Zn
atom_frac -0.0009665105829566 0.7931383948049441 0.6656669748675360 O
atom_frac 0.1251070784146638 0.9568931771591966 0.6930547688882434 O
atom_frac 0.1262134044902214 0.8404071683865337 0.6850982721561866 Zn
atom_frac 0.2500000000000000 0.3324366666666667 0.3030300000000000 Zn
    constrain_relaxation .true.
atom_frac 0.2500000000000000 0.1283966666666667 0.3030300000000000 O
    constrain_relaxation .true.
atom_frac 0.3749900000000000 0.2950633333333333 0.3333300000000000 O
    constrain_relaxation .true.
atom_frac 0.3750000000000000 0.1657700000000000 0.3333300000000000 Zn
    constrain_relaxation .true.
atom_frac 0.3750000000000000 0.3324366666666667 0.3939400000000000 Zn
    constrain_relaxation .true.
atom_frac 0.3750000000000000 0.1283966666666667 0.3939400000000000 O
    constrain_relaxation .true.
atom_frac 0.4999900000000000 0.2950633333333333 0.4242400000000000 O
    constrain_relaxation .true.
atom_frac 0.2500000000000000 0.1657700000000000 0.4242400000000000 Zn
    constrain_relaxation .true.
atom_frac 0.2500000000000000 0.3324366666666667 0.4848499999999999 Zn
    constrain_relaxation .true.
atom_frac 0.2500000000000000 0.1283966666666667 0.4848499999999999 O
    constrain_relaxation .true.
atom_frac 0.3749900000000000 0.2950633333333333 0.5151500000000000 O
    constrain_relaxation .true.
atom_frac 0.3750000000000000 0.1657700000000000 0.5151500000000000 Zn
    constrain_relaxation .true.
atom_frac 0.3750000000000000 0.3324366666666667 0.5757600000000000 Zn
    constrain_relaxation .true.
atom_frac 0.3750000000000000 0.1283966666666667 0.5757600000000000 O
    constrain_relaxation .true.
atom_frac 0.4996645984501825 0.2938632264293265 0.6064155005897124 O
atom_frac 0.2497740117409225 0.1688409149267592 0.6038660998559846 Zn
atom_frac 0.2551582070869761 0.3409162835277814 0.6673115173579796 Zn
atom_frac 0.2483046519717950 0.1271282702283353 0.6662287327584120 O
atom_frac 0.3749937148006668 0.2900577242599496 0.6962608091611665 O
atom_frac 0.3750002112099085 0.1746751803450919 0.6851707254968067 Zn
atom_frac 0.2500000000000000 0.6657700000000001 0.3030300000000000 Zn
    constrain_relaxation .true.
atom_frac 0.2500000000000000 0.4617300000000000 0.3030300000000000 O
    constrain_relaxation .true.
atom_frac 0.3749900000000000 0.6283966666666667 0.3333300000000000 O
    constrain_relaxation .true.
atom_frac 0.3750000000000000 0.4991033333333333 0.3333300000000000 Zn
    constrain_relaxation .true.
atom_frac 0.3750000000000000 0.6657700000000001 0.3939400000000000 Zn
    constrain_relaxation .true.
atom_frac 0.3750000000000000 0.4617300000000000 0.3939400000000000 O
    constrain_relaxation .true.
atom_frac 0.4999900000000000 0.6283966666666667 0.4242400000000000 O
    constrain_relaxation .true.
atom_frac 0.2500000000000000 0.4991033333333333 0.4242400000000000 Zn
    constrain_relaxation .true.
atom_frac 0.2500000000000000 0.6657700000000001 0.4848499999999999 Zn
    constrain_relaxation .true.
atom_frac 0.2500000000000000 0.4617300000000000 0.4848499999999999 O
    constrain_relaxation .true.
atom_frac 0.3749900000000000 0.6283966666666667 0.5151500000000000 O
    constrain_relaxation .true.
atom_frac 0.3750000000000000 0.4991033333333333 0.5151500000000000 Zn
    constrain_relaxation .true.
atom_frac 0.3750000000000000 0.6657700000000001 0.5757600000000000 Zn
    constrain_relaxation .true.
atom_frac 0.3750000000000000 0.4617300000000000 0.5757600000000000 O
    constrain_relaxation .true.
atom_frac 0.4987367760946341 0.6294872848581102 0.6053221676932349 O
atom_frac 0.2494259180350092 0.5035178587147506 0.6029319578557318 Zn
atom_frac 0.2601089769596414 0.6635622858874766 0.6679512399740156 Zn
atom_frac 0.2516551330163907 0.4635681215099931 0.6620490024905871 O
atom_frac 0.3750037870186447 0.5267990318437499 0.6844422199885069 Zn
atom_frac 0.2500000000000000 0.9991033333333335 0.3030300000000000 Zn
    constrain_relaxation .true.
atom_frac 0.2500000000000000 0.7950633333333335 0.3030300000000000 O
    constrain_relaxation .true.
atom_frac 0.3749900000000000 0.9617300000000001 0.3333300000000000 O
    constrain_relaxation .true.
atom_frac 0.3750000000000000 0.8324366666666667 0.3333300000000000 Zn
    constrain_relaxation .true.
atom_frac 0.3750000000000000 0.9991033333333335 0.3939400000000000 Zn
    constrain_relaxation .true.
atom_frac 0.3750000000000000 0.7950633333333335 0.3939400000000000 O
    constrain_relaxation .true.
atom_frac 0.4999900000000000 0.9617300000000001 0.4242400000000000 O
    constrain_relaxation .true.
atom_frac 0.2500000000000000 0.8324366666666667 0.4242400000000000 Zn
    constrain_relaxation .true.
atom_frac 0.2500000000000000 0.9991033333333335 0.4848499999999999 Zn
    constrain_relaxation .true.
atom_frac 0.2500000000000000 0.7950633333333335 0.4848499999999999 O
    constrain_relaxation .true.
atom_frac 0.3749900000000000 0.9617300000000001 0.5151500000000000 O
    constrain_relaxation .true.
atom_frac 0.3750000000000000 0.8324366666666667 0.5151500000000000 Zn
    constrain_relaxation .true.
atom_frac 0.3750000000000000 0.9991033333333335 0.5757600000000000 Zn
    constrain_relaxation .true.
atom_frac 0.3750000000000000 0.7950633333333335 0.5757600000000000 O
    constrain_relaxation .true.
atom_frac 0.4999625505345962 0.9607581348437083 0.6054027370942402 O
atom_frac 0.2501994746490856 0.8350897673685892 0.6039217711824642 Zn
atom_frac 0.2483966700457871 1.0001368346003088 0.6685387440029902 Zn
atom_frac 0.2532303147918637 0.7907998439566374 0.6661606747658818 O
atom_frac 0.3750015730862855 0.9630811946042447 0.6935925039285288 O
atom_frac 0.3750015856262958 0.8474659091027855 0.6856898803637499 Zn
atom_frac 0.5000000000000000 0.3324366666666667 0.3030300000000000 Zn
    constrain_relaxation .true.
atom_frac 0.5000000000000000 0.1283966666666667 0.3030300000000000 O
    constrain_relaxation .true.
atom_frac 0.6249900000000000 0.2950633333333333 0.3333300000000000 O
    constrain_relaxation .true.
atom_frac 0.6250000000000000 0.1657700000000000 0.3333300000000000 Zn
    constrain_relaxation .true.
atom_frac 0.6250000000000000 0.3324366666666667 0.3939400000000000 Zn
    constrain_relaxation .true.
atom_frac 0.6250000000000000 0.1283966666666667 0.3939400000000000 O
    constrain_relaxation .true.
atom_frac 0.7499899999999999 0.2950633333333333 0.4242400000000000 O
    constrain_relaxation .true.
atom_frac 0.5000000000000000 0.1657700000000000 0.4242400000000000 Zn
    constrain_relaxation .true.
atom_frac 0.5000000000000000 0.3324366666666667 0.4848499999999999 Zn
    constrain_relaxation .true.
atom_frac 0.5000000000000000 0.1283966666666667 0.4848499999999999 O
    constrain_relaxation .true.
atom_frac 0.6249900000000000 0.2950633333333333 0.5151500000000000 O
    constrain_relaxation .true.
atom_frac 0.6250000000000000 0.1657700000000000 0.5151500000000000 Zn
    constrain_relaxation .true.
atom_frac 0.6250000000000000 0.3324366666666667 0.5757600000000000 Zn
    constrain_relaxation .true.
atom_frac 0.6250000000000000 0.1283966666666667 0.5757600000000000 O
    constrain_relaxation .true.
atom_frac 0.7488502969434269 0.2948874953037086 0.6070637594998906 O
atom_frac 0.5002262488040465 0.1688428308054110 0.6038661653648308 Zn
atom_frac 0.4948362276681766 0.3409156563636064 0.6673167120213677 Zn
atom_frac 0.5016973941634945 0.1271304615884812 0.6662293863226000 O
atom_frac 0.6186436441447702 0.2976367335390219 0.6982223745990789 O
atom_frac 0.6240932073806013 0.1817877469549286 0.6862836553861887 Zn
atom_frac 0.5000000000000000 0.6657700000000001 0.3030300000000000 Zn
    constrain_relaxation .true.
atom_frac 0.5000000000000000 0.4617300000000000 0.3030300000000000 O
    constrain_relaxation .true.
atom_frac 0.6249900000000000 0.6283966666666667 0.3333300000000000 O
    constrain_relaxation .true.
atom_frac 0.6250000000000000 0.4991033333333333 0.3333300000000000 Zn
    constrain_relaxation .true.
atom_frac 0.6250000000000000 0.6657700000000001 0.3939400000000000 Zn
    constrain_relaxation .true.
atom_frac 0.6250000000000000 0.4617300000000000 0.3939400000000000 O
    constrain_relaxation .true.
atom_frac 0.7499899999999999 0.6283966666666667 0.4242400000000000 O
    constrain_relaxation .true.
atom_frac 0.5000000000000000 0.4991033333333333 0.4242400000000000 Zn
    constrain_relaxation .true.
atom_frac 0.5000000000000000 0.6657700000000001 0.4848499999999999 Zn
    constrain_relaxation .true.
atom_frac 0.5000000000000000 0.4617300000000000 0.4848499999999999 O
    constrain_relaxation .true.
atom_frac 0.6249900000000000 0.6283966666666667 0.5151500000000000 O
    constrain_relaxation .true.
atom_frac 0.6250000000000000 0.4991033333333333 0.5151500000000000 Zn
    constrain_relaxation .true.
atom_frac 0.6250000000000000 0.6657700000000001 0.5757600000000000 Zn
    constrain_relaxation .true.
atom_frac 0.6250000000000000 0.4617300000000000 0.5757600000000000 O
    constrain_relaxation .true.
atom_frac 0.7497128277325422 0.6275513606730064 0.6053378166666109 O
atom_frac 0.5005743219196097 0.5035160745011512 0.6029323965168587 Zn
atom_frac 0.4898927625010969 0.6635637723406451 0.6679503230269489 Zn
atom_frac 0.4983498724491858 0.4635672941319745 0.6620499863411741 O
atom_frac 0.6199113974262127 0.6312849546334021 0.6920823445576758 O
atom_frac 0.6187286529858440 0.5075468543982353 0.6957666694399880 Zn
atom_frac 0.5000000000000000 0.9991033333333335 0.3030300000000000 Zn
    constrain_relaxation .true.
atom_frac 0.5000000000000000 0.7950633333333335 0.3030300000000000 O
    constrain_relaxation .true.
atom_frac 0.6249900000000000 0.9617300000000001 0.3333300000000000 O
    constrain_relaxation .true.
atom_frac 0.6250000000000000 0.8324366666666667 0.3333300000000000 Zn
    constrain_relaxation .true.
atom_frac 0.6250000000000000 0.9991033333333335 0.3939400000000000 Zn
    constrain_relaxation .true.
atom_frac 0.6250000000000000 0.7950633333333335 0.3939400000000000 O
    constrain_relaxation .true.
atom_frac 0.7499899999999999 0.9617300000000001 0.4242400000000000 O
    constrain_relaxation .true.
atom_frac 0.5000000000000000 0.8324366666666667 0.4242400000000000 Zn
    constrain_relaxation .true.
atom_frac 0.5000000000000000 0.9991033333333335 0.4848499999999999 Zn
    constrain_relaxation .true.
atom_frac 0.5000000000000000 0.7950633333333335 0.4848499999999999 O
    constrain_relaxation .true.
atom_frac 0.6249900000000000 0.9617300000000001 0.5151500000000000 O
    constrain_relaxation .true.
atom_frac 0.6250000000000000 0.8324366666666667 0.5151500000000000 Zn
    constrain_relaxation .true.
atom_frac 0.6250000000000000 0.9991033333333335 0.5757600000000000 Zn
    constrain_relaxation .true.
atom_frac 0.6250000000000000 0.7950633333333335 0.5757600000000000 O
    constrain_relaxation .true.
atom_frac 0.7499829364739928 0.9618911750839678 0.6055339147833646 O
atom_frac 0.4998008184743700 0.8350902889410756 0.6039216871500999 Zn
atom_frac 0.5016051314285719 1.0001383811487192 0.6685387643156401 Zn
atom_frac 0.4967729340117596 0.7908006234617806 0.6661605792322070 O
atom_frac 0.6248954869190494 0.9568946244717246 0.6930547203462671 O
atom_frac 0.6237898653484006 0.8404086791756119 0.6850980779232929 Zn
atom_frac 0.7500000000000000 0.3324366666666667 0.3030300000000000 Zn
    constrain_relaxation .true.
atom_frac 0.7500000000000000 0.1283966666666667 0.3030300000000000 O
    constrain_relaxation .true.
atom_frac 0.8749900000000000 0.2950633333333333 0.3333300000000000 O
    constrain_relaxation .true.
atom_frac 0.8749999999999999 0.1657700000000000 0.3333300000000000 Zn
    constrain_relaxation .true.
atom_frac 0.8749999999999999 0.3324366666666667 0.3939400000000000 Zn
    constrain_relaxation .true.
atom_frac 0.8749999999999999 0.1283966666666667 0.3939400000000000 O
    constrain_relaxation .true.
atom_frac 0.9999899999999999 0.2950633333333333 0.4242400000000000 O
    constrain_relaxation .true.
atom_frac 0.7500000000000000 0.1657700000000000 0.4242400000000000 Zn
    constrain_relaxation .true.
atom_frac 0.7500000000000000 0.3324366666666667 0.4848499999999999 Zn
    constrain_relaxation .true.
atom_frac 0.7500000000000000 0.1283966666666667 0.4848499999999999 O
    constrain_relaxation .true.
atom_frac 0.8749900000000000 0.2950633333333333 0.5151500000000000 O
    constrain_relaxation .true.
atom_frac 0.8749999999999999 0.1657700000000000 0.5151500000000000 Zn
    constrain_relaxation .true.
atom_frac 0.8749999999999999 0.3324366666666667 0.5757600000000000 Zn
    constrain_relaxation .true.
atom_frac 0.8749999999999999 0.1283966666666667 0.5757600000000000 O
    constrain_relaxation .true.
atom_frac 1.0011481871395664 0.2948876536836214 0.6070632210445605 O
atom_frac 0.7498860815531817 0.1695976526927146 0.6040829973268917 Zn
atom_frac 0.7476656549537933 0.3378574991072075 0.6707069204324031 Zn
atom_frac 0.7481092065036219 0.1291036497626347 0.6668932953685587 O
atom_frac 0.8750006842492926 0.2957562170599613 0.6939140474423400 O
atom_frac 0.8750020374028803 0.1799495744945444 0.6851837242747080 Zn
atom_frac 0.7500000000000000 0.6657700000000001 0.3030300000000000 Zn
    constrain_relaxation .true.
atom_frac 0.7500000000000000 0.4617300000000000 0.3030300000000000 O
    constrain_relaxation .true.
atom_frac 0.8749900000000000 0.6283966666666667 0.3333300000000000 O
    constrain_relaxation .true.
atom_frac 0.8749999999999999 0.4991033333333333 0.3333300000000000 Zn
    constrain_relaxation .true.
atom_frac 0.8749999999999999 0.6657700000000001 0.3939400000000000 Zn
    constrain_relaxation .true.
atom_frac 0.8749999999999999 0.4617300000000000 0.3939400000000000 O
    constrain_relaxation .true.
atom_frac 0.9999899999999999 0.6283966666666667 0.4242400000000000 O
    constrain_relaxation .true.
atom_frac 0.7500000000000000 0.4991033333333333 0.4242400000000000 Zn
    constrain_relaxation .true.
atom_frac 0.7500000000000000 0.6657700000000001 0.4848499999999999 Zn
    constrain_relaxation .true.
atom_frac 0.7500000000000000 0.4617300000000000 0.4848499999999999 O
    constrain_relaxation .true.
atom_frac 0.8749900000000000 0.6283966666666667 0.5151500000000000 O
    constrain_relaxation .true.
atom_frac 0.8749999999999999 0.4991033333333333 0.5151500000000000 Zn
    constrain_relaxation .true.
atom_frac 0.8749999999999999 0.6657700000000001 0.5757600000000000 Zn
    constrain_relaxation .true.
atom_frac 0.8749999999999999 0.4617300000000000 0.5757600000000000 O
    constrain_relaxation .true.
atom_frac 1.0002862467717146 0.6275511850811583 0.6053379181771059 O
atom_frac 0.7488408581063386 0.5019384598112464 0.6053662657367244 Zn
atom_frac 0.7491575898567819 0.6660532589719779 0.6683839855270032 Zn
atom_frac 0.7464157684488717 0.4625854276980048 0.6675759235467242 O
atom_frac 0.8750013379505229 0.6272546846713029 0.6933990409070954 O
atom_frac 0.8750019234183378 0.5107250758516556 0.6861470647707492 Zn
atom_frac 0.7500000000000000 0.9991033333333335 0.3030300000000000 Zn
    constrain_relaxation .true.
atom_frac 0.7500000000000000 0.7950633333333335 0.3030300000000000 O
    constrain_relaxation .true.
atom_frac 0.8749900000000000 0.9617300000000001 0.3333300000000000 O
    constrain_relaxation .true.
atom_frac 0.8749999999999999 0.8324366666666667 0.3333300000000000 Zn
    constrain_relaxation .true.
atom_frac 0.8749999999999999 0.9991033333333335 0.3939400000000000 Zn
    constrain_relaxation .true.
atom_frac 0.8749999999999999 0.7950633333333335 0.3939400000000000 O
    constrain_relaxation .true.
atom_frac 0.9999899999999999 0.9617300000000001 0.4242400000000000 O
    constrain_relaxation .true.
atom_frac 0.7500000000000000 0.8324366666666667 0.4242400000000000 Zn
    constrain_relaxation .true.
atom_frac 0.7500000000000000 0.9991033333333335 0.4848499999999999 Zn
    constrain_relaxation .true.
atom_frac 0.7500000000000000 0.7950633333333335 0.4848499999999999 O
    constrain_relaxation .true.
atom_frac 0.8749900000000000 0.9617300000000001 0.5151500000000000 O
    constrain_relaxation .true.
atom_frac 0.8749999999999999 0.8324366666666667 0.5151500000000000 Zn
    constrain_relaxation .true.
atom_frac 0.8749999999999999 0.9991033333333335 0.5757600000000000 Zn
    constrain_relaxation .true.
atom_frac 0.8749999999999999 0.7950633333333335 0.5757600000000000 O
    constrain_relaxation .true.
atom_frac 1.0000163294139723 0.9618908640550492 0.6055338317682086 O
atom_frac 0.7501272416129720 0.8362120905018814 0.6038875689140133 Zn
atom_frac 0.7486709174016304 1.0011153942368618 0.6689967226535958 Zn
atom_frac 0.7509692209851487 0.7931390960697946 0.6656670146611163 O
atom_frac 0.8750012384194902 0.9622294366290497 0.6934913017473234 O
atom_frac 0.8750018462472799 0.8462448505147137 0.6851664414208666 Zn
atom_frac 0.3750299343130314 0.4552381691730041 0.7536799080466976 Pd
atom_frac 0.1213615502542108 0.4698295017345937 0.7754947078676504 Pd
atom_frac 0.2343068801085519 0.3451498548680399 0.7577494335297511 Pd
atom_frac 0.4732722475108895 0.5063963697734549 0.8234815264522202 Pd
atom_frac 0.3750290501594381 0.3555955730973837 0.8206240301906711 Pd
atom_frac 0.2767688905349674 0.5063871963511337 0.8234784771110865 Pd
atom_frac 0.2585694237381277 0.5838110947088425 0.7466931263710028 Pd
atom_frac 0.4914647167579571 0.5838220706236825 0.7466960238040622 Pd
atom_frac 0.5157580036688501 0.3451499472316263 0.7577573681291785 Pd
atom_frac 0.6286826812510018 0.4698491952764745 0.7754956141935523 Pd

