Pd                                      
   1.00000000000000     
     4.0463279999999999    0.0000000000000000    0.0000000000000000
    -0.0000000003120000    4.0463279999999999    0.0000000000000000
    -0.0000000003120000   -0.0000000003120000    4.0463279999999999
   Pd
     4
Direct
  0.0000000000000000  0.0000000000000000  0.0000000000000000
  0.0000000000771081  0.5000000000385540  0.5000000000000000
  0.5000000000385540  0.0000000000385540  0.5000000000000000
  0.5000000000385540  0.5000000000000000  0.0000000000000000
 
  0.00000000E+00  0.00000000E+00  0.00000000E+00
  0.00000000E+00  0.00000000E+00  0.00000000E+00
  0.00000000E+00  0.00000000E+00  0.00000000E+00
  0.00000000E+00  0.00000000E+00  0.00000000E+00
