Pd 
 1.0000000000000000
     4.0463279999999999    0.0000000000000000    0.0000000000000000
    -0.0000000003120000    4.0463279999999999    0.0000000000000000
    -0.0000000003120000   -0.0000000003120000    4.0463279999999999
   4
Cartesian
  0.0000000000000000  0.0000000000000000  0.0000000000000000
  0.0000000000000000  2.0231640000000000  2.0231640000000000
  2.0231640000000000  0.0000000000000000  2.0231640000000000
  2.0231640000000000  2.0231640000000000  0.0000000000000000
