#=======================================================
# FHI-aims file: cut_0_slabheight_14.in
# Created using the Atomic Simulation Environment (ASE)
# Tue Nov 22 18:36:10 2022
#=======================================================
lattice_vector 3.2606000000000002 0.0000000000000000 0.0000000000000000 
lattice_vector -1.6302999999999994 2.8237624315795409 0.0000000000000000 
lattice_vector 0.0000000000000000 0.0000000000000000 31.4674000000000014 
atom -0.0000163029999994 1.8825177002611324 8.8634225579999999 O
atom 1.6303163030000001 0.9412447313184084 9.4924558840000000 Zn
atom 1.6303163030000001 0.9412447313184084 11.4859156740000010 O
atom -0.0000163029999994 1.8825177002611324 12.1146343260000009 Zn
atom -0.0000163029999994 1.8825177002611324 14.1080941160000020 O
atom 1.6303163030000001 0.9412447313184084 14.7371274420000020 Zn
atom 1.6303163030000001 0.9412447313184084 16.7302725579999993 O
atom -0.0000163029999994 1.8825177002611324 17.3593058840000012 Zn
atom -0.0000163029999994 1.8825177002611324 19.3527656740000005 O
atom 1.6303163030000001 0.9412447313184084 19.9814843260000039 Zn
atom 1.6303163030000001 0.9412447313184084 21.9749441159999996 O
atom -0.0000163029999994 1.8825177002611324 22.6039774420000015 Zn
