#=======================================================
# FHI-aims file: cut_1_slabheight_14.in
# Created using the Atomic Simulation Environment (ASE)
# Tue Nov 22 18:36:10 2022
#=======================================================
lattice_vector 3.2606000000000002 0.0000000000000000 0.0000000000000000 
lattice_vector -1.6302999999999994 2.8237624315795409 0.0000000000000000 
lattice_vector 0.0000000000000000 0.0000000000000000 31.4674000000000014 
atom 1.6303163030000001 0.9412447313184084 8.1812093260000012 Zn
atom 1.6303163030000001 0.9412447313184084 10.1746691160000005 O
atom -0.0000163029999994 1.8825177002611324 10.8037024420000005 Zn
atom -0.0000163029999994 1.8825177002611324 12.7968475579999996 O
atom 1.6303163030000001 0.9412447313184084 13.4258808839999997 Zn
atom 1.6303163030000001 0.9412447313184084 15.4193406740000007 O
atom -0.0000163029999994 1.8825177002611324 16.0480593260000042 Zn
atom -0.0000163029999994 1.8825177002611324 18.0415191159999999 O
atom 1.6303163030000001 0.9412447313184084 18.6705524420000017 Zn
atom 1.6303163030000001 0.9412447313184084 20.6636975579999991 O
atom -0.0000163029999994 1.8825177002611324 21.2927308840000009 Zn
atom -0.0000163029999994 1.8825177002611324 23.2861906740000002 O
