#=======================================================
# FHI-aims file: supercell_1_slabheight_14.in
# Created using the Atomic Simulation Environment (ASE)
# Tue Aug 15 00:19:42 2023
#=======================================================
lattice_vector 16.3280999999999992 0.0000000000000000 0.0000000000000000 
lattice_vector -8.1617629407246426 14.1388675624822895 0.0000000000000000 
lattice_vector 0.0000000000000000 0.0000000000000000 120.1159999999999997 
atom 1.6132831839999344 0.9183194481832246 52.5351349199999973 Zn
atom -0.0190694041449942 3.7460929606796829 52.5351349199999973 Zn
atom -1.6514219922899223 6.5738664731761389 52.5351349199999973 Zn
atom -3.2837745804348515 9.4016399856725990 52.5351349199999973 Zn
atom -4.9161271685797798 12.2294134981690554 52.5351349199999973 Zn
atom 4.8789031839999346 0.9183194481832246 52.5351349199999973 Zn
atom 3.2465505958550058 3.7460929606796829 52.5351349199999973 Zn
atom 1.6141980077100775 6.5738664731761389 52.5351349199999973 Zn
atom -0.0181545804348512 9.4016399856725990 52.5351349199999973 Zn
atom -1.6505071685797794 12.2294134981690554 52.5351349199999973 Zn
atom 8.1445231839999348 0.9183194481832246 52.5351349199999973 Zn
atom 6.5121705958550056 3.7460929606796829 52.5351349199999973 Zn
atom 4.8798180077100772 6.5738664731761389 52.5351349199999973 Zn
atom 3.2474654195651480 9.4016399856725990 52.5351349199999973 Zn
atom 1.6151128314202190 12.2294134981690554 52.5351349199999973 Zn
atom 11.4101431839999350 0.9183194481832246 52.5351349199999973 Zn
atom 9.7777905958550058 3.7460929606796829 52.5351349199999973 Zn
atom 8.1454380077100765 6.5738664731761389 52.5351349199999973 Zn
atom 6.5130854195651482 9.4016399856725990 52.5351349199999973 Zn
atom 4.8807328314202190 12.2294134981690554 52.5351349199999973 Zn
atom 14.6757631839999352 0.9183194481832246 52.5351349199999973 Zn
atom 13.0434105958550060 3.7460929606796829 52.5351349199999973 Zn
atom 11.4110580077100767 6.5738664731761389 52.5351349199999973 Zn
atom 9.7787054195651493 9.4016399856725990 52.5351349199999973 Zn
atom 8.1463528314202200 12.2294134981690554 52.5351349199999973 Zn
atom 4.8792460896688139 6.5711800883392693 54.5242558799999912 O
atom 3.2459786778137429 3.7434065758428110 54.5242558799999912 O
atom 3.2468935015238842 9.3989536008357248 54.5242558799999912 O
atom -3.2843464984761135 9.3989536008357248 54.5242558799999912 O
atom 1.6145409133789570 12.2267271133321849 54.5242558799999912 O
atom 1.6136260896688146 6.5711800883392693 54.5242558799999912 O
atom 11.4095712659586717 0.9156330633463531 54.5242558799999912 O
atom 1.6127112659586724 0.9156330633463531 54.5242558799999912 O
atom 9.7772186778137424 3.7434065758428110 54.5242558799999912 O
atom -0.0187264984761141 9.3989536008357248 54.5242558799999912 O
atom 8.1448660896688132 6.5711800883392693 54.5242558799999912 O
atom -4.9166990866210414 12.2267271133321849 54.5242558799999912 O
atom 6.5125135015238866 9.3989536008357248 54.5242558799999912 O
atom -1.6510790866210423 12.2267271133321849 54.5242558799999912 O
atom 4.8801609133789574 12.2267271133321849 54.5242558799999912 O
atom -1.6519939103311847 6.5711800883392693 54.5242558799999912 O
atom 14.6751912659586718 0.9156330633463531 54.5242558799999912 O
atom 8.1439512659586715 0.9156330633463531 54.5242558799999912 O
atom 13.0428386778137426 3.7434065758428110 54.5242558799999912 O
atom 4.8783312659586713 0.9156330633463531 54.5242558799999912 O
atom 11.4104860896688134 6.5711800883392693 54.5242558799999912 O
atom 6.5115986778137422 3.7434065758428110 54.5242558799999912 O
atom 9.7781335015238859 9.3989536008357248 54.5242558799999912 O
atom -0.0196413221862562 3.7434065758428110 54.5242558799999912 O
atom 8.1457809133789567 12.2267271133321849 54.5242558799999912 O
atom 8.1444795612968157 4.6863276535847556 55.1464567599999924 Zn
atom -0.0191130268481112 7.5141011660812111 55.1464567599999924 Zn
atom 4.8788595612968173 4.6863276535847556 55.1464567599999924 Zn
atom 6.5121269731518874 7.5141011660812111 55.1464567599999924 Zn
atom -4.9170856149930406 10.3418746785776712 55.1464567599999924 Zn
atom 3.2455921494417455 1.8585541410882971 55.1464567599999924 Zn
atom 4.8797743850069590 10.3418746785776712 55.1464567599999924 Zn
atom 3.2465069731518890 7.5141011660812111 55.1464567599999924 Zn
atom -1.6514656149930402 10.3418746785776712 55.1464567599999924 Zn
atom 3.2474217968620311 13.1696481910741294 55.1464567599999924 Zn
atom -3.2847330268481110 7.5141011660812111 55.1464567599999924 Zn
atom 1.6141543850069600 10.3418746785776712 55.1464567599999924 Zn
atom 13.0424521494417451 1.8585541410882971 55.1464567599999924 Zn
atom -0.0200278505582544 1.8585541410882971 55.1464567599999924 Zn
atom -3.2838182031379684 13.1696481910741294 55.1464567599999924 Zn
atom 11.4100995612968159 4.6863276535847556 55.1464567599999924 Zn
atom -0.0181982031379682 13.1696481910741294 55.1464567599999924 Zn
atom 1.6132395612968169 4.6863276535847556 55.1464567599999924 Zn
atom 9.7777469731518885 7.5141011660812111 55.1464567599999924 Zn
atom -6.5494382031379681 13.1696481910741294 55.1464567599999924 Zn
atom 9.7768321494417449 1.8585541410882971 55.1464567599999924 Zn
atom 8.1453943850069592 10.3418746785776712 55.1464567599999924 Zn
atom 6.5112121494417456 1.8585541410882971 55.1464567599999924 Zn
atom -1.6523804387031831 4.6863276535847556 55.1464567599999924 Zn
atom 6.5130417968620309 13.1696481910741294 55.1464567599999924 Zn
atom 4.8786313722657724 10.3415919012264190 57.1355777200000006 O
atom 6.5100691367005599 1.8582713637370472 57.1355777200000006 O
atom -6.5505812158791539 13.1693654137228791 57.1355777200000006 O
atom -0.0193412158791542 13.1693654137228791 57.1355777200000006 O
atom 3.2462787841208454 13.1693654137228791 57.1355777200000006 O
atom -4.9182286277342255 10.3415919012264190 57.1355777200000006 O
atom -1.6526086277342253 10.3415919012264190 57.1355777200000006 O
atom 4.8777165485556315 4.6860448762335052 57.1355777200000006 O
atom 13.0413091367005585 1.8582713637370472 57.1355777200000006 O
atom 9.7756891367005583 1.8582713637370472 57.1355777200000006 O
atom 1.6120965485556320 4.6860448762335052 57.1355777200000006 O
atom -1.6535234514443686 4.6860448762335052 57.1355777200000006 O
atom 11.4089565485556310 4.6860448762335052 57.1355777200000006 O
atom -0.0211708632994401 1.8582713637370472 57.1355777200000006 O
atom 8.1433365485556308 4.6860448762335052 57.1355777200000006 O
atom 3.2453639604107032 7.5138183887299625 57.1355777200000006 O
atom 9.7766039604107018 7.5138183887299625 57.1355777200000006 O
atom -3.2849612158791532 13.1693654137228791 57.1355777200000006 O
atom 3.2444491367005606 1.8582713637370472 57.1355777200000006 O
atom 6.5109839604107025 7.5138183887299625 57.1355777200000006 O
atom 8.1442513722657743 10.3415919012264190 57.1355777200000006 O
atom -0.0202560395892962 7.5138183887299625 57.1355777200000006 O
atom 1.6130113722657740 10.3415919012264190 57.1355777200000006 O
atom -3.2858760395892967 7.5138183887299625 57.1355777200000006 O
atom 6.5118987841208451 13.1693654137228791 57.1355777200000006 O
atom 4.8778582697805941 6.5716042543661430 57.7577786000000017 Zn
atom 3.2445908579255214 3.7438307418696857 57.7577786000000017 Zn
atom -3.2857343183643350 9.3993777668626013 57.7577786000000017 Zn
atom 8.1425634460704508 0.9160572293732275 57.7577786000000017 Zn
atom 14.6738034460704494 0.9160572293732275 57.7577786000000017 Zn
atom 9.7758308579255200 3.7438307418696857 57.7577786000000017 Zn
atom -0.0201143183643354 9.3993777668626013 57.7577786000000017 Zn
atom 3.2455056816356658 9.3993777668626013 57.7577786000000017 Zn
atom 4.8769434460704497 0.9160572293732275 57.7577786000000017 Zn
atom 13.0414508579255202 3.7438307418696857 57.7577786000000017 Zn
atom -4.9180869065092629 12.2271512793590560 57.7577786000000017 Zn
atom 8.1434782697805925 6.5716042543661430 57.7577786000000017 Zn
atom -0.0210291420744784 3.7438307418696857 57.7577786000000017 Zn
atom 6.5102108579255225 3.7438307418696857 57.7577786000000017 Zn
atom 11.4090982697805927 6.5716042543661430 57.7577786000000017 Zn
atom 1.6131530934907365 12.2271512793590560 57.7577786000000017 Zn
atom 1.6122382697805933 6.5716042543661430 57.7577786000000017 Zn
atom 6.5111256816356642 9.3993777668626013 57.7577786000000017 Zn
atom -1.6524669065092636 12.2271512793590560 57.7577786000000017 Zn
atom 9.7767456816356635 9.3993777668626013 57.7577786000000017 Zn
atom -1.6533817302194065 6.5716042543661430 57.7577786000000017 Zn
atom 1.6113234460704504 0.9160572293732275 57.7577786000000017 Zn
atom 11.4081834460704492 0.9160572293732275 57.7577786000000017 Zn
atom 4.8787730934907350 12.2271512793590560 57.7577786000000017 Zn
atom 8.1443930934907343 12.2271512793590560 57.7577786000000017 Zn
atom 14.6732315280291861 0.9133708445363560 59.7468995600000028 O
atom 1.6107515280291882 0.9133708445363560 59.7468995600000028 O
atom 1.6125811754494712 12.2244648945221872 59.7468995600000028 O
atom 8.1429063517393310 6.5689178695292707 59.7468995600000028 O
atom -0.0206862364055974 9.3966913820257290 59.7468995600000028 O
atom -3.2863062364055970 9.3966913820257290 59.7468995600000028 O
atom 13.0408789398842586 3.7411443570328138 59.7468995600000028 O
atom 4.8772863517393299 6.5689178695292707 59.7468995600000028 O
atom 8.1419915280291857 0.9133708445363560 59.7468995600000028 O
atom -1.6539536482606689 6.5689178695292707 59.7468995600000028 O
atom 6.5105537635944026 9.3966913820257290 59.7468995600000028 O
atom 11.4076115280291877 0.9133708445363560 59.7468995600000028 O
atom 11.4085263517393294 6.5689178695292707 59.7468995600000028 O
atom 1.6116663517393313 6.5689178695292707 59.7468995600000028 O
atom -4.9186588245505263 12.2244648945221872 59.7468995600000028 O
atom 3.2440189398842594 3.7411443570328138 59.7468995600000028 O
atom 3.2449337635944011 9.3966913820257290 59.7468995600000028 O
atom 4.8782011754494752 12.2244648945221872 59.7468995600000028 O
atom 9.7761737635944019 9.3966913820257290 59.7468995600000028 O
atom -1.6530388245505263 12.2244648945221872 59.7468995600000028 O
atom 9.7752589398842602 3.7411443570328138 59.7468995600000028 O
atom 6.5096389398842582 3.7411443570328138 59.7468995600000028 O
atom 4.8763715280291882 0.9133708445363560 59.7468995600000028 O
atom -0.0216010601157403 3.7411443570328138 59.7468995600000028 O
atom 8.1438211754494727 12.2244648945221872 59.7468995600000028 O
atom 9.7748724115122609 1.8562919222782996 60.3691004399999969 Zn
atom 4.8768998233673342 4.6840654347747561 60.3691004399999969 Zn
atom 1.6121946470774766 10.3396124597676735 60.3691004399999969 Zn
atom 11.4081398233673337 4.6840654347747561 60.3691004399999969 Zn
atom 4.8778146470774750 10.3396124597676735 60.3691004399999969 Zn
atom -1.6534253529225236 10.3396124597676735 60.3691004399999969 Zn
atom 3.2436324115122619 1.8562919222782996 60.3691004399999969 Zn
atom -0.0210727647775954 7.5118389472712161 60.3691004399999969 Zn
atom 1.6112798233673331 4.6840654347747561 60.3691004399999969 Zn
atom 8.1425198233673317 4.6840654347747561 60.3691004399999969 Zn
atom 9.7757872352224044 7.5118389472712161 60.3691004399999969 Zn
atom 6.5092524115122625 1.8562919222782996 60.3691004399999969 Zn
atom 3.2454620589325458 13.1673859722641300 60.3691004399999969 Zn
atom -4.9190453529225238 10.3396124597676735 60.3691004399999969 Zn
atom -0.0201579410674515 13.1673859722641300 60.3691004399999969 Zn
atom 3.2445472352224050 7.5118389472712161 60.3691004399999969 Zn
atom -0.0219875884877382 1.8562919222782996 60.3691004399999969 Zn
atom 8.1434346470774770 10.3396124597676735 60.3691004399999969 Zn
atom -1.6543401766326666 4.6840654347747561 60.3691004399999969 Zn
atom 6.5101672352224034 7.5118389472712161 60.3691004399999969 Zn
atom 13.0404924115122629 1.8562919222782996 60.3691004399999969 Zn
atom -3.2857779410674519 13.1673859722641300 60.3691004399999969 Zn
atom -6.5513979410674521 13.1673859722641300 60.3691004399999969 Zn
atom -3.2866927647775954 7.5118389472712161 60.3691004399999969 Zn
atom 6.5110820589325478 13.1673859722641300 60.3691004399999969 Zn
atom 11.4071600916261460 4.6837826574235084 62.3582213999999979 O
atom 8.1415400916261458 4.6837826574235084 62.3582213999999979 O
atom -0.0211376728086385 13.1671031949128832 62.3582213999999979 O
atom -1.6544050846637095 10.3393296824164214 62.3582213999999979 O
atom -0.0220524965187815 7.5115561699199649 62.3582213999999979 O
atom -1.6553199083738523 4.6837826574235084 62.3582213999999979 O
atom 3.2444823271913608 13.1671031949128832 62.3582213999999979 O
atom 4.8759200916261474 4.6837826574235084 62.3582213999999979 O
atom 9.7748075034812185 7.5115561699199649 62.3582213999999979 O
atom -6.5523776728086380 13.1671031949128832 62.3582213999999979 O
atom -4.9200250846637088 10.3393296824164214 62.3582213999999979 O
atom 6.5091875034812192 7.5115561699199649 62.3582213999999979 O
atom 1.6112149153362907 10.3393296824164214 62.3582213999999979 O
atom 9.7738926797710750 1.8560091449270502 62.3582213999999979 O
atom -0.0229673202289238 1.8560091449270502 62.3582213999999979 O
atom 13.0395126797710752 1.8560091449270502 62.3582213999999979 O
atom 8.1424549153362893 10.3393296824164214 62.3582213999999979 O
atom 6.5082726797710757 1.8560091449270502 62.3582213999999979 O
atom 3.2426526797710760 1.8560091449270502 62.3582213999999979 O
atom -3.2876724965187809 7.5115561699199649 62.3582213999999979 O
atom -3.2867576728086387 13.1671031949128832 62.3582213999999979 O
atom 4.8768349153362909 10.3393296824164214 62.3582213999999979 O
atom 3.2435675034812186 7.5115561699199649 62.3582213999999979 O
atom 1.6103000916261472 4.6837826574235084 62.3582213999999979 O
atom 6.5101023271913609 13.1671031949128832 62.3582213999999979 O
atom -0.0220740562938196 9.3971155480526054 62.9804222799999920 Zn
atom 4.8768133555612536 12.2248890605490601 62.9804222799999920 Zn
atom 11.4062237081409670 0.9137950105632304 62.9804222799999920 Zn
atom 8.1415185318511103 6.5693420355561463 62.9804222799999920 Zn
atom 1.6093637081409662 0.9137950105632304 62.9804222799999920 Zn
atom -0.0229888800039621 3.7415685230596880 62.9804222799999920 Zn
atom 11.4071385318511087 6.5693420355561463 62.9804222799999920 Zn
atom 4.8758985318511074 6.5693420355561463 62.9804222799999920 Zn
atom 4.8749837081409666 0.9137950105632304 62.9804222799999920 Zn
atom -3.2876940562938199 9.3971155480526054 62.9804222799999920 Zn
atom -4.9200466444387478 12.2248890605490601 62.9804222799999920 Zn
atom 14.6718437081409654 0.9137950105632304 62.9804222799999920 Zn
atom 1.6111933555612497 12.2248890605490601 62.9804222799999920 Zn
atom 6.5082511199960367 3.7415685230596880 62.9804222799999920 Zn
atom 6.5091659437061811 9.3971155480526054 62.9804222799999920 Zn
atom 9.7747859437061795 9.3971155480526054 62.9804222799999920 Zn
atom 9.7738711199960377 3.7415685230596880 62.9804222799999920 Zn
atom 3.2426311199960383 3.7415685230596880 62.9804222799999920 Zn
atom -1.6553414681488907 6.5693420355561463 62.9804222799999920 Zn
atom 8.1406037081409650 0.9137950105632304 62.9804222799999920 Zn
atom 1.6102785318511095 6.5693420355561463 62.9804222799999920 Zn
atom 13.0394911199960362 3.7415685230596880 62.9804222799999920 Zn
atom 3.2435459437061787 9.3971155480526054 62.9804222799999920 Zn
atom -1.6544266444387479 12.2248890605490601 62.9804222799999920 Zn
atom 8.1424333555612503 12.2248890605490601 62.9804222799999920 Zn
atom 1.6107847185199913 12.2222026757121878 64.9695432399999788 O
atom -1.6548352814800107 12.2222026757121878 64.9695432399999788 O
atom -4.9204552814800104 12.2222026757121878 64.9695432399999788 O
atom 1.6089550710997038 0.9111086257263586 64.9695432399999788 O
atom 11.4067298948098461 6.5666556507192748 64.9695432399999788 O
atom 9.7734624829547752 3.7388821382228166 64.9695432399999788 O
atom -1.6557501051901533 6.5666556507192748 64.9695432399999788 O
atom 14.6714350710997028 0.9111086257263586 64.9695432399999788 O
atom 6.5087573066649185 9.3944291632157331 64.9695432399999788 O
atom 3.2431373066649183 9.3944291632157331 64.9695432399999788 O
atom 3.2422224829547748 3.7388821382228166 64.9695432399999788 O
atom -3.2881026933350821 9.3944291632157331 64.9695432399999788 O
atom -0.0233975170452247 3.7388821382228166 64.9695432399999788 O
atom 4.8754898948098475 6.5666556507192748 64.9695432399999788 O
atom 9.7743773066649169 9.3944291632157331 64.9695432399999788 O
atom 11.4058150710997044 0.9111086257263586 64.9695432399999788 O
atom 1.6098698948098460 6.5666556507192748 64.9695432399999788 O
atom 4.8745750710997031 0.9111086257263586 64.9695432399999788 O
atom 13.0390824829547736 3.7388821382228166 64.9695432399999788 O
atom 8.1411098948098477 6.5666556507192748 64.9695432399999788 O
atom 4.8764047185199875 12.2222026757121878 64.9695432399999788 O
atom 6.5078424829547759 3.7388821382228166 64.9695432399999788 O
atom -0.0224826933350826 9.3944291632157331 64.9695432399999788 O
atom 8.1401950710997042 0.9111086257263586 64.9695432399999788 O
atom 8.1420247185199894 12.2222026757121878 64.9695432399999788 O
atom 4.8758549091479928 10.3373502409576759 65.5917441199999871 Zn
atom 4.8749400854378475 4.6818032159647602 65.5917441199999871 Zn
atom 9.7738274972929187 7.5095767284612185 65.5917441199999871 Zn
atom 13.0385326735827753 1.8540297034683026 65.5917441199999871 Zn
atom 6.5072926735827759 1.8540297034683026 65.5917441199999871 Zn
atom 9.7729126735827769 1.8540297034683026 65.5917441199999871 Zn
atom 1.6093200854378491 4.6818032159647602 65.5917441199999871 Zn
atom -6.5533576789969370 13.1651237534541323 65.5917441199999871 Zn
atom 3.2416726735827774 1.8540297034683026 65.5917441199999871 Zn
atom -0.0239473264172224 1.8540297034683026 65.5917441199999871 Zn
atom 6.5082074972929211 7.5095767284612185 65.5917441199999871 Zn
atom -0.0221176789969384 13.1651237534541323 65.5917441199999871 Zn
atom -0.0230325027070796 7.5095767284612185 65.5917441199999871 Zn
atom 8.1414749091479912 10.3373502409576759 65.5917441199999871 Zn
atom 3.2435023210030627 13.1651237534541323 65.5917441199999871 Zn
atom 11.4061800854378479 4.6818032159647602 65.5917441199999871 Zn
atom -4.9210050908520078 10.3373502409576759 65.5917441199999871 Zn
atom -1.6562999145621506 4.6818032159647602 65.5917441199999871 Zn
atom 1.6102349091479906 10.3373502409576759 65.5917441199999871 Zn
atom -1.6553850908520078 10.3373502409576759 65.5917441199999871 Zn
atom 8.1405600854378495 4.6818032159647602 65.5917441199999871 Zn
atom -3.2886525027070794 7.5095767284612185 65.5917441199999871 Zn
atom 3.2425874972929187 7.5095767284612185 65.5917441199999871 Zn
atom -3.2877376789969368 13.1651237534541323 65.5917441199999871 Zn
atom 6.5091223210030611 13.1651237534541323 65.5917441199999871 Zn
atom 9.7728477655517345 7.5092939511099681 67.5808650799999953 O
atom -3.2887174107381218 13.1648409761028837 67.5808650799999953 O
atom -1.6572796463033366 4.6815204386135107 67.5808650799999953 O
atom 6.5072277655517334 7.5092939511099681 67.5808650799999953 O
atom 1.6092551774068056 10.3370674636064273 67.5808650799999953 O
atom 6.5063129418415917 1.8537469261170529 67.5808650799999953 O
atom 3.2416077655517346 7.5092939511099681 67.5808650799999953 O
atom 4.8739603536966625 4.6815204386135107 67.5808650799999953 O
atom 3.2425225892618776 13.1648409761028837 67.5808650799999953 O
atom -0.0249270581584080 1.8537469261170529 67.5808650799999953 O
atom 8.1395803536966618 4.6815204386135107 67.5808650799999953 O
atom 11.4052003536966620 4.6815204386135107 67.5808650799999953 O
atom 8.1404951774068053 10.3370674636064273 67.5808650799999953 O
atom -0.0240122344482648 7.5092939511099681 67.5808650799999953 O
atom -6.5543374107381220 13.1648409761028837 67.5808650799999953 O
atom -4.9219848225931937 10.3370674636064273 67.5808650799999953 O
atom 1.6083403536966629 4.6815204386135107 67.5808650799999953 O
atom 9.7719329418415910 1.8537469261170529 67.5808650799999953 O
atom 4.8748751774068051 10.3370674636064273 67.5808650799999953 O
atom -1.6563648225931937 10.3370674636064273 67.5808650799999953 O
atom 3.2406929418415920 1.8537469261170529 67.5808650799999953 O
atom -3.2896322344482649 7.5092939511099681 67.5808650799999953 O
atom 13.0375529418415912 1.8537469261170529 67.5808650799999953 O
atom -0.0230974107381227 13.1648409761028837 67.5808650799999953 O
atom 6.5081425892618778 13.1648409761028837 67.5808650799999953 O
