#=======================================================
# FHI-aims file: supercell_0_slabheight_14.in
# Created using the Atomic Simulation Environment (ASE)
# Tue Aug 15 00:19:41 2023
#=======================================================
lattice_vector 16.3280999999999992 0.0000000000000000 0.0000000000000000 
lattice_vector -8.1617629407246426 14.1388675624822895 0.0000000000000000 
lattice_vector 0.0000000000000000 0.0000000000000000 120.1159999999999997 
atom -0.0197010598523267 1.8599680278445452 53.2185949600000043 O
atom -1.6520536479972556 4.6877415403410021 53.2185949600000043 O
atom -3.2844062361421833 7.5155150528374604 53.2185949600000043 O
atom -4.9167588242871130 10.3432885653339195 53.2185949600000043 O
atom -6.5491114124320404 13.1710620778303742 53.2185949600000043 O
atom 3.2459189401476731 1.8599680278445452 53.2185949600000043 O
atom 1.6135663520027439 4.6877415403410021 53.2185949600000043 O
atom -0.0187862361421838 7.5155150528374604 53.2185949600000043 O
atom -1.6511388242871128 10.3432885653339195 53.2185949600000043 O
atom -3.2834914124320411 13.1710620778303742 53.2185949600000043 O
atom 6.5115389401476733 1.8599680278445452 53.2185949600000043 O
atom 4.8791863520027450 4.6877415403410021 53.2185949600000043 O
atom 3.2468337638578166 7.5155150528374604 53.2185949600000043 O
atom 1.6144811757128874 10.3432885653339195 53.2185949600000043 O
atom -0.0178714124320408 13.1710620778303742 53.2185949600000043 O
atom 9.7771589401476717 1.8599680278445452 53.2185949600000043 O
atom 8.1448063520027443 4.6877415403410021 53.2185949600000043 O
atom 6.5124537638578159 7.5155150528374604 53.2185949600000043 O
atom 4.8801011757128867 10.3432885653339195 53.2185949600000043 O
atom 3.2477485875679575 13.1710620778303742 53.2185949600000043 O
atom 13.0427789401476719 1.8599680278445452 53.2185949600000043 O
atom 11.4104263520027445 4.6877415403410021 53.2185949600000043 O
atom 9.7780737638578152 7.5155150528374604 53.2185949600000043 O
atom 8.1457211757128860 10.3432885653339195 53.2185949600000043 O
atom 6.5133685875679577 13.1710620778303742 53.2185949600000043 O
atom 4.8793280732277067 6.5733009184736400 53.8407958400000055 Zn
atom 3.2460606613726353 3.7455274059771830 53.8407958400000055 Zn
atom 3.2469754850827774 9.4010744309701000 53.8407958400000055 Zn
atom -3.2842645149172220 9.4010744309701000 53.8407958400000055 Zn
atom 1.6146228969378491 12.2288479434665565 53.8407958400000055 Zn
atom 1.6137080732277060 6.5733009184736400 53.8407958400000055 Zn
atom 11.4096532495175627 0.9177538934807253 53.8407958400000055 Zn
atom 1.6127932495175634 0.9177538934807253 53.8407958400000055 Zn
atom 9.7773006613726352 3.7455274059771830 53.8407958400000055 Zn
atom -0.0186445149172221 9.4010744309701000 53.8407958400000055 Zn
atom 8.1449480732277060 6.5733009184736400 53.8407958400000055 Zn
atom -4.9166171030621504 12.2288479434665565 53.8407958400000055 Zn
atom 6.5125954850827776 9.4010744309701000 53.8407958400000055 Zn
atom -1.6509971030621502 12.2288479434665565 53.8407958400000055 Zn
atom 4.8802428969378493 12.2288479434665565 53.8407958400000055 Zn
atom -1.6519119267722937 6.5733009184736400 53.8407958400000055 Zn
atom 14.6752732495175628 0.9177538934807253 53.8407958400000055 Zn
atom 8.1440332495175625 0.9177538934807253 53.8407958400000055 Zn
atom 13.0429206613726354 3.7455274059771830 53.8407958400000055 Zn
atom 4.8784132495175632 0.9177538934807253 53.8407958400000055 Zn
atom 11.4105680732277062 6.5733009184736400 53.8407958400000055 Zn
atom 6.5116806613726341 3.7455274059771830 53.8407958400000055 Zn
atom 9.7782154850827769 9.4010744309701000 53.8407958400000055 Zn
atom -0.0195593386273650 3.7455274059771830 53.8407958400000055 Zn
atom 8.1458628969378495 12.2288479434665565 53.8407958400000055 Zn
atom 9.7767287433313701 3.7428410211403120 55.8299167999999995 O
atom 1.6131361551864434 6.5706145336367703 55.8299167999999995 O
atom 6.5111087433313708 3.7428410211403120 55.8299167999999995 O
atom 8.1443761551864409 6.5706145336367703 55.8299167999999995 O
atom -3.2848364329584840 9.3983880461332276 55.8299167999999995 O
atom 4.8778413314763007 0.9150675086438538 55.8299167999999995 O
atom 6.5120235670415125 9.3983880461332276 55.8299167999999995 O
atom 4.8787561551864425 6.5706145336367703 55.8299167999999995 O
atom -0.0192164329584849 9.3983880461332276 55.8299167999999995 O
atom 4.8796709788965842 12.2261615586296859 55.8299167999999995 O
atom -1.6524838448135559 6.5706145336367703 55.8299167999999995 O
atom 3.2464035670415146 9.3983880461332276 55.8299167999999995 O
atom 14.6747013314762995 0.9150675086438538 55.8299167999999995 O
atom 1.6122213314763012 0.9150675086438538 55.8299167999999995 O
atom -1.6515690211034140 12.2261615586296859 55.8299167999999995 O
atom 13.0423487433313721 3.7428410211403120 55.8299167999999995 O
atom 1.6140509788965853 12.2261615586296859 55.8299167999999995 O
atom 3.2454887433313719 3.7428410211403120 55.8299167999999995 O
atom 11.4099961551864428 6.5706145336367703 55.8299167999999995 O
atom -4.9171890211034128 12.2261615586296859 55.8299167999999995 O
atom 11.4090813314762975 0.9150675086438538 55.8299167999999995 O
atom 9.7776435670415154 9.3983880461332276 55.8299167999999995 O
atom 8.1434613314762991 0.9150675086438538 55.8299167999999995 O
atom -0.0201312566686274 3.7428410211403120 55.8299167999999995 O
atom 8.1452909788965862 12.2261615586296859 55.8299167999999995 O
atom 4.8792844505245885 10.3413091238751722 56.4521176800000006 Zn
atom 6.5107222149593751 1.8579885863857977 56.4521176800000006 Zn
atom -6.5499281376203387 13.1690826363716287 56.4521176800000006 Zn
atom -0.0186881376203391 13.1690826363716287 56.4521176800000006 Zn
atom 3.2469318623796601 13.1690826363716287 56.4521176800000006 Zn
atom -4.9175755494754112 10.3413091238751722 56.4521176800000006 Zn
atom -1.6519555494754110 10.3413091238751722 56.4521176800000006 Zn
atom 4.8783696268144467 4.6857620988822557 56.4521176800000006 Zn
atom 13.0419622149593746 1.8579885863857977 56.4521176800000006 Zn
atom 9.7763422149593744 1.8579885863857977 56.4521176800000006 Zn
atom 1.6127496268144461 4.6857620988822557 56.4521176800000006 Zn
atom -1.6528703731855536 4.6857620988822557 56.4521176800000006 Zn
atom 11.4096096268144453 4.6857620988822557 56.4521176800000006 Zn
atom -0.0205177850406252 1.8579885863857977 56.4521176800000006 Zn
atom 8.1439896268144452 4.6857620988822557 56.4521176800000006 Zn
atom 3.2460170386695171 7.5135356113787140 56.4521176800000006 Zn
atom 9.7772570386695161 7.5135356113787140 56.4521176800000006 Zn
atom -3.2843081376203394 13.1690826363716287 56.4521176800000006 Zn
atom 3.2451022149593745 1.8579885863857977 56.4521176800000006 Zn
atom 6.5116370386695168 7.5135356113787140 56.4521176800000006 Zn
atom 8.1449044505245887 10.3413091238751722 56.4521176800000006 Zn
atom -0.0196029613304829 7.5135356113787140 56.4521176800000006 Zn
atom 1.6136644505245892 10.3413091238751722 56.4521176800000006 Zn
atom -3.2852229613304829 7.5135356113787140 56.4521176800000006 Zn
atom 6.5125518623796603 13.1690826363716287 56.4521176800000006 Zn
atom 3.2448740259283313 7.5132528340274645 58.4412386399999875 O
atom 1.6116066140732597 4.6854793215310062 58.4412386399999875 O
atom -4.9187185622165961 10.3410263465239218 58.4412386399999875 O
atom 6.5095792022181884 1.8577058090345482 58.4412386399999875 O
atom 13.0408192022181879 1.8577058090345482 58.4412386399999875 O
atom 8.1428466140732585 4.6854793215310062 58.4412386399999875 O
atom -1.6530985622165970 10.3410263465239218 58.4412386399999875 O
atom 1.6125214377834032 10.3410263465239218 58.4412386399999875 O
atom 3.2439592022181882 1.8577058090345482 58.4412386399999875 O
atom 11.4084666140732587 4.6854793215310062 58.4412386399999875 O
atom -6.5510711503615253 13.1687998590203783 58.4412386399999875 O
atom 6.5104940259283310 7.5132528340274645 58.4412386399999875 O
atom -1.6540133859267399 4.6854793215310062 58.4412386399999875 O
atom 4.8772266140732601 4.6854793215310062 58.4412386399999875 O
atom 9.7761140259283312 7.5132528340274645 58.4412386399999875 O
atom -0.0198311503615259 13.1687998590203783 58.4412386399999875 O
atom -0.0207459740716688 7.5132528340274645 58.4412386399999875 O
atom 4.8781414377834027 10.3410263465239218 58.4412386399999875 O
atom -3.2854511503615260 13.1687998590203783 58.4412386399999875 O
atom 8.1437614377834020 10.3410263465239218 58.4412386399999875 O
atom -3.2863659740716682 7.5132528340274645 58.4412386399999875 O
atom -0.0216607977818112 1.8577058090345482 58.4412386399999875 O
atom 9.7751992022181877 1.8577058090345482 58.4412386399999875 O
atom 3.2457888496384744 13.1687998590203783 58.4412386399999875 O
atom 6.5114088496384745 13.1687998590203783 58.4412386399999875 O
atom 14.6733135115880788 0.9154916746707282 59.0634395199999886 Zn
atom 1.6108335115880792 0.9154916746707282 59.0634395199999886 Zn
atom 1.6126631590083658 12.2265857246565606 59.0634395199999886 Zn
atom 8.1429883352982220 6.5710386996636441 59.0634395199999886 Zn
atom -0.0206042528467062 9.3988122121601005 59.0634395199999886 Zn
atom -3.2862242528467061 9.3988122121601005 59.0634395199999886 Zn
atom 13.0409609234431496 3.7432651871671858 59.0634395199999886 Zn
atom 4.8773683352982227 6.5710386996636441 59.0634395199999886 Zn
atom 8.1420735115880802 0.9154916746707282 59.0634395199999886 Zn
atom -1.6538716647017779 6.5710386996636441 59.0634395199999886 Zn
atom 6.5106357471532945 9.3988122121601005 59.0634395199999886 Zn
atom 11.4076935115880786 0.9154916746707282 59.0634395199999886 Zn
atom 11.4086083352982222 6.5710386996636441 59.0634395199999886 Zn
atom 1.6117483352982218 6.5710386996636441 59.0634395199999886 Zn
atom -4.9185768409916353 12.2265857246565606 59.0634395199999886 Zn
atom 3.2441009234431504 3.7432651871671858 59.0634395199999886 Zn
atom 3.2450157471532939 9.3988122121601005 59.0634395199999886 Zn
atom 4.8782831590083644 12.2265857246565606 59.0634395199999886 Zn
atom 9.7762557471532929 9.3988122121601005 59.0634395199999886 Zn
atom -1.6529568409916353 12.2265857246565606 59.0634395199999886 Zn
atom 9.7753409234431494 3.7432651871671858 59.0634395199999886 Zn
atom 6.5097209234431519 3.7432651871671858 59.0634395199999886 Zn
atom 4.8764535115880792 0.9154916746707282 59.0634395199999886 Zn
atom -0.0215190765568492 3.7432651871671858 59.0634395199999886 Zn
atom 8.1439031590083637 12.2265857246565606 59.0634395199999886 Zn
atom 11.4071215935468171 0.9128052898338567 61.0525604799999968 O
atom 6.5091490054018886 3.7405788023303148 61.0525604799999968 O
atom 3.2444438291120301 9.3961258273232300 61.0525604799999968 O
atom 13.0403890054018863 3.7405788023303148 61.0525604799999968 O
atom 6.5100638291120303 9.3961258273232300 61.0525604799999968 O
atom -0.0211761708879691 9.3961258273232300 61.0525604799999968 O
atom 4.8758815935468167 0.9128052898338567 61.0525604799999968 O
atom 1.6111764172569605 6.5683523148267708 61.0525604799999968 O
atom 3.2435290054018879 3.7405788023303148 61.0525604799999968 O
atom 9.7747690054018879 3.7405788023303148 61.0525604799999968 O
atom 11.4080364172569588 6.5683523148267708 61.0525604799999968 O
atom 8.1415015935468169 0.9128052898338567 61.0525604799999968 O
atom 4.8777112409671028 12.2238993398196882 61.0525604799999968 O
atom -3.2867961708879689 9.3961258273232300 61.0525604799999968 O
atom 1.6120912409671029 12.2238993398196882 61.0525604799999968 O
atom 4.8767964172569602 6.5683523148267708 61.0525604799999968 O
atom 1.6102615935468170 0.9128052898338567 61.0525604799999968 O
atom 9.7756838291120296 9.3961258273232300 61.0525604799999968 O
atom -0.0220909945981116 3.7405788023303148 61.0525604799999968 O
atom 8.1424164172569604 6.5683523148267708 61.0525604799999968 O
atom 14.6727415935468155 0.9128052898338567 61.0525604799999968 O
atom -1.6535287590328973 12.2238993398196882 61.0525604799999968 O
atom -4.9191487590328968 12.2238993398196882 61.0525604799999968 O
atom -1.6544435827430397 6.5683523148267708 61.0525604799999968 O
atom 8.1433312409671021 12.2238993398196882 61.0525604799999968 O
atom 11.4076498888849631 4.6834998800722571 61.6747613600000051 Zn
atom 8.1420298888849612 4.6834998800722571 61.6747613600000051 Zn
atom -0.0206478755498242 13.1668204175616328 61.6747613600000051 Zn
atom -1.6539152874048944 10.3390469050651728 61.6747613600000051 Zn
atom -0.0215626992599662 7.5112733925687163 61.6747613600000051 Zn
atom -1.6548301111150379 4.6834998800722571 61.6747613600000051 Zn
atom 3.2449721244501752 13.1668204175616328 61.6747613600000051 Zn
atom 4.8764098888849619 4.6834998800722571 61.6747613600000051 Zn
atom 9.7752973007400339 7.5112733925687163 61.6747613600000051 Zn
atom -6.5518878755498235 13.1668204175616328 61.6747613600000051 Zn
atom -4.9195352874048943 10.3390469050651728 61.6747613600000051 Zn
atom 6.5096773007400319 7.5112733925687163 61.6747613600000051 Zn
atom 1.6117047125951049 10.3390469050651728 61.6747613600000051 Zn
atom 9.7743824770298886 1.8557263675758007 61.6747613600000051 Zn
atom -0.0224775229701094 1.8557263675758007 61.6747613600000051 Zn
atom 13.0400024770298906 1.8557263675758007 61.6747613600000051 Zn
atom 8.1429447125951064 10.3390469050651728 61.6747613600000051 Zn
atom 6.5087624770298902 1.8557263675758007 61.6747613600000051 Zn
atom 3.2431424770298909 1.8557263675758007 61.6747613600000051 Zn
atom -3.2871826992599664 7.5112733925687163 61.6747613600000051 Zn
atom -3.2862678755498234 13.1668204175616328 61.6747613600000051 Zn
atom 4.8773247125951054 10.3390469050651728 61.6747613600000051 Zn
atom 3.2440573007400331 7.5112733925687163 61.6747613600000051 Zn
atom 1.6107898888849619 4.6834998800722571 61.6747613600000051 Zn
atom 6.5105921244501772 13.1668204175616328 61.6747613600000051 Zn
atom -1.6548950191460805 10.3387641277139259 63.6638823200000061 O
atom 3.2439923927089898 13.1665376402103824 63.6638823200000061 O
atom 9.7734027452887045 1.8554435902245510 63.6638823200000061 O
atom 6.5086975689988469 7.5109906152174668 63.6638823200000061 O
atom -0.0234572547112951 1.8554435902245510 63.6638823200000061 O
atom -1.6558098428562236 4.6832171027210094 63.6638823200000061 O
atom 9.7743175689988462 7.5109906152174668 63.6638823200000061 O
atom 3.2430775689988480 7.5109906152174668 63.6638823200000061 O
atom 3.2421627452887054 1.8554435902245510 63.6638823200000061 O
atom -4.9205150191460811 10.3387641277139259 63.6638823200000061 O
atom -6.5528676072910095 13.1665376402103824 63.6638823200000061 O
atom 13.0390227452887029 1.8554435902245510 63.6638823200000061 O
atom -0.0216276072910093 13.1665376402103824 63.6638823200000061 O
atom 4.8754301571437759 4.6832171027210094 63.6638823200000061 O
atom 4.8763449808539185 10.3387641277139259 63.6638823200000061 O
atom 8.1419649808539170 10.3387641277139259 63.6638823200000061 O
atom 8.1410501571437752 4.6832171027210094 63.6638823200000061 O
atom 1.6098101571437768 4.6832171027210094 63.6638823200000061 O
atom -3.2881624310011519 7.5109906152174668 63.6638823200000061 O
atom 6.5077827452887043 1.8554435902245510 63.6638823200000061 O
atom -0.0225424310011514 7.5109906152174668 63.6638823200000061 O
atom 11.4066701571437736 4.6832171027210094 63.6638823200000061 O
atom 1.6107249808539188 10.3387641277139259 63.6638823200000061 O
atom -3.2872476072910088 13.1665376402103824 63.6638823200000061 O
atom 6.5096123927089886 13.1665376402103824 63.6638823200000061 O
atom 1.6107034210788798 12.2243235058465629 64.2860832000000073 Zn
atom -1.6549165789211187 12.2243235058465629 64.2860832000000073 Zn
atom -4.9205365789211184 12.2243235058465629 64.2860832000000073 Zn
atom 1.6088737736585952 0.9132294558607310 64.2860832000000073 Zn
atom 11.4066485973687364 6.5687764808536473 64.2860832000000073 Zn
atom 9.7733811855136672 3.7410029683571890 64.2860832000000073 Zn
atom -1.6558314026312619 6.5687764808536473 64.2860832000000073 Zn
atom 14.6713537736585948 0.9132294558607310 64.2860832000000073 Zn
atom 6.5086760092238087 9.3965499933501029 64.2860832000000073 Zn
atom 3.2430560092238090 9.3965499933501029 64.2860832000000073 Zn
atom 3.2421411855136668 3.7410029683571890 64.2860832000000073 Zn
atom -3.2881839907761905 9.3965499933501029 64.2860832000000073 Zn
atom -0.0234788144863334 3.7410029683571890 64.2860832000000073 Zn
atom 4.8754085973687369 6.5687764808536473 64.2860832000000073 Zn
atom 9.7742960092238089 9.3965499933501029 64.2860832000000073 Zn
atom 11.4057337736585964 0.9132294558607310 64.2860832000000073 Zn
atom 1.6097885973687382 6.5687764808536473 64.2860832000000073 Zn
atom 4.8744937736585952 0.9132294558607310 64.2860832000000073 Zn
atom 13.0390011855136656 3.7410029683571890 64.2860832000000073 Zn
atom 8.1410285973687380 6.5687764808536473 64.2860832000000073 Zn
atom 4.8763234210788822 12.2243235058465629 64.2860832000000073 Zn
atom 6.5077611855136652 3.7410029683571890 64.2860832000000073 Zn
atom -0.0225639907761904 9.3965499933501029 64.2860832000000073 Zn
atom 8.1401137736585945 0.9132294558607310 64.2860832000000073 Zn
atom 8.1419434210788797 12.2243235058465629 64.2860832000000073 Zn
atom 6.5082673721825488 9.3938636085132305 66.2752041600000013 O
atom 6.5073525484724026 3.7383165835203176 66.2752041600000013 O
atom 11.4062399603274756 6.5660900960167750 66.2752041600000013 O
atom 14.6709451366173322 0.9105430710238595 66.2752041600000013 O
atom 8.1397051366173319 0.9105430710238595 66.2752041600000013 O
atom 11.4053251366173338 0.9105430710238595 66.2752041600000013 O
atom 3.2417325484724042 3.7383165835203176 66.2752041600000013 O
atom -4.9209452159623801 12.2216371210096906 66.2752041600000013 O
atom 4.8740851366173326 0.9105430710238595 66.2752041600000013 O
atom 1.6084651366173333 0.9105430710238595 66.2752041600000013 O
atom 8.1406199603274771 6.5660900960167750 66.2752041600000013 O
atom 1.6102947840376178 12.2216371210096906 66.2752041600000013 O
atom 1.6093799603274761 6.5660900960167750 66.2752041600000013 O
atom 9.7738873721825463 9.3938636085132305 66.2752041600000013 O
atom 4.8759147840376196 12.2216371210096906 66.2752041600000013 O
atom 13.0385925484724030 3.7383165835203176 66.2752041600000013 O
atom -3.2885926278174522 9.3938636085132305 66.2752041600000013 O
atom -0.0238874515275955 3.7383165835203176 66.2752041600000013 O
atom 3.2426473721825468 9.3938636085132305 66.2752041600000013 O
atom -0.0229726278174525 9.3938636085132305 66.2752041600000013 O
atom 9.7729725484724046 3.7383165835203176 66.2752041600000013 O
atom -1.6562400396725236 6.5660900960167750 66.2752041600000013 O
atom 4.8749999603274743 6.5660900960167750 66.2752041600000013 O
atom -1.6553252159623806 12.2216371210096906 66.2752041600000013 O
atom 8.1415347840376189 12.2216371210096906 66.2752041600000013 O
atom 9.7733375628105481 7.5090111737587186 66.8974050399999953 Zn
atom -3.2882276134793078 13.1645581987516351 66.8974050399999953 Zn
atom -1.6567898490445219 4.6812376612622613 66.8974050399999953 Zn
atom 6.5077175628105497 7.5090111737587186 66.8974050399999953 Zn
atom 1.6097449746656207 10.3367846862551751 66.8974050399999953 Zn
atom 6.5068027391004062 1.8534641487658035 66.8974050399999953 Zn
atom 3.2420975628105499 7.5090111737587186 66.8974050399999953 Zn
atom 4.8744501509554778 4.6812376612622613 66.8974050399999953 Zn
atom 3.2430123865206926 13.1645581987516351 66.8974050399999953 Zn
atom -0.0244372608995934 1.8534641487658035 66.8974050399999953 Zn
atom 8.1400701509554789 4.6812376612622613 66.8974050399999953 Zn
atom 11.4056901509554773 4.6812376612622613 66.8974050399999953 Zn
atom 8.1409849746656189 10.3367846862551751 66.8974050399999953 Zn
atom -0.0235224371894504 7.5090111737587186 66.8974050399999953 Zn
atom -6.5538476134793076 13.1645581987516351 66.8974050399999953 Zn
atom -4.9214950253343792 10.3367846862551751 66.8974050399999953 Zn
atom 1.6088301509554777 4.6812376612622613 66.8974050399999953 Zn
atom 9.7724227391004064 1.8534641487658035 66.8974050399999953 Zn
atom 4.8753649746656205 10.3367846862551751 66.8974050399999953 Zn
atom -1.6558750253343795 10.3367846862551751 66.8974050399999953 Zn
atom 3.2411827391004060 1.8534641487658035 66.8974050399999953 Zn
atom -3.2891424371894500 7.5090111737587186 66.8974050399999953 Zn
atom 13.0380427391004048 1.8534641487658035 66.8974050399999953 Zn
atom -0.0226076134793074 13.1645581987516351 66.8974050399999953 Zn
atom 6.5086323865206914 13.1645581987516351 66.8974050399999953 Zn
