#=======================================================
# FHI-aims file: C:\Users\eimea\PycharmProjects\DJW_EBMC\interface\test_interface.in
# Created using the Atomic Simulation Environment (ASE)
# Wed Nov 15 15:40:50 2023
#=======================================================
lattice_vector 32.6058000000000021 0.0000000000000000 0.0000000000000000 
lattice_vector -16.3028999999999940 28.2374511107146517 0.0000000000000000 
lattice_vector 0.0000000000000000 0.0000000000000000 26.2228999999999992 
atom -6.5208339419999977 13.1772889353261000 0.9967324290000000 O
atom 1.6304530290000003 4.7063359766228112 0.9967324290000000 O
atom 0.0003260580000011 7.5297987131831690 0.9967324290000000 O
atom -3.2602539419999981 13.1772889353261000 0.9967324290000000 O
atom 6.5209969710000015 1.8825908655513457 0.9967324290000000 O
atom 4.8907069710000020 4.7063359766228112 0.9967324290000000 O
atom 3.2605800000000023 7.5297987131831690 0.9967324290000000 O
atom 1.6301269710000030 10.3538261987657414 0.9967324290000000 O
atom 0.0000000000000033 13.1772889353261000 0.9967324290000000 O
atom 9.7815769710000016 1.8825908655513457 0.9967324290000000 O
atom 6.5211600000000027 7.5297987131831690 0.9967324290000000 O
atom 4.8907069710000037 10.3538261987657414 0.9967324290000000 O
atom 3.2605800000000040 13.1772889353261000 0.9967324290000000 O
atom 13.0424830290000013 1.8825908655513457 0.9967324290000000 O
atom 11.4121930290000027 4.7063359766228112 0.9967324290000000 O
atom 9.7820660580000034 7.5297987131831690 0.9967324290000000 O
atom 8.1516130290000035 10.3538261987657414 0.9967324290000000 O
atom 6.5214860580000042 13.1772889353261000 0.9967324290000000 O
atom 4.8910330290000017 6.5886444676630500 1.6255575710000003 Zn
atom 3.2605800000000031 3.7651817311026914 1.6255575710000003 Zn
atom 3.2607430290000021 9.4123895787345155 1.6255575710000003 Zn
atom -3.2604169709999984 9.4123895787345155 1.6255575710000003 Zn
atom 1.6304530290000021 12.2361346898059775 1.6255575710000003 Zn
atom 1.6304530290000032 6.5886444676630500 1.6255575710000003 Zn
atom 11.4121930290000009 0.9411542455201193 1.6255575710000003 Zn
atom 1.6304530290000001 0.9411542455201193 1.6255575710000003 Zn
atom 9.7817400000000028 3.7651817311026914 1.6255575710000003 Zn
atom 0.0001630290000038 9.4123895787345155 1.6255575710000003 Zn
atom 8.1512869710000011 6.5886444676630500 1.6255575710000003 Zn
atom -4.8910330289999973 12.2361346898059775 1.6255575710000003 Zn
atom 6.5213230290000030 9.4123895787345155 1.6255575710000003 Zn
atom -1.6304530289999968 12.2361346898059775 1.6255575710000003 Zn
atom 4.8910330290000052 12.2361346898059775 1.6255575710000003 Zn
atom -1.6304530289999988 6.5886444676630500 1.6255575710000003 Zn
atom 14.6724469710000012 0.9411542455201193 1.6255575710000003 Zn
atom 8.1516130290000000 0.9411542455201193 1.6255575710000003 Zn
atom 13.0419939420000031 3.7651817311026914 1.6255575710000003 Zn
atom 4.8910330290000026 0.9411542455201193 1.6255575710000003 Zn
atom 11.4118669710000020 6.5886444676630500 1.6255575710000003 Zn
atom 6.5211600000000010 3.7651817311026914 1.6255575710000003 Zn
atom 9.7815769710000033 9.4123895787345155 1.6255575710000003 Zn
atom 0.0000000000000008 3.7651817311026914 1.6255575710000003 Zn
atom 8.1512869710000047 12.2361346898059775 1.6255575710000003 Zn
atom 9.7817400000000028 3.7651817311026914 3.6190224289999997 O
atom 1.6304530290000032 6.5886444676630500 3.6190224289999997 O
atom 6.5211600000000010 3.7651817311026914 3.6190224289999997 O
atom 8.1512869710000011 6.5886444676630500 3.6190224289999997 O
atom -3.2604169709999984 9.4123895787345155 3.6190224289999997 O
atom 4.8910330290000026 0.9411542455201193 3.6190224289999997 O
atom 6.5213230290000030 9.4123895787345155 3.6190224289999997 O
atom 4.8910330290000017 6.5886444676630500 3.6190224289999997 O
atom 0.0001630290000038 9.4123895787345155 3.6190224289999997 O
atom 4.8910330290000052 12.2361346898059775 3.6190224289999997 O
atom -1.6304530289999988 6.5886444676630500 3.6190224289999997 O
atom 3.2607430290000021 9.4123895787345155 3.6190224289999997 O
atom 14.6724469710000012 0.9411542455201193 3.6190224289999997 O
atom 1.6304530290000001 0.9411542455201193 3.6190224289999997 O
atom -1.6304530289999968 12.2361346898059775 3.6190224289999997 O
atom 13.0419939420000031 3.7651817311026914 3.6190224289999997 O
atom 1.6304530290000021 12.2361346898059775 3.6190224289999997 O
atom 3.2605800000000031 3.7651817311026914 3.6190224289999997 O
atom 11.4118669710000020 6.5886444676630500 3.6190224289999997 O
atom -4.8910330289999973 12.2361346898059775 3.6190224289999997 O
atom 11.4121930290000009 0.9411542455201193 3.6190224289999997 O
atom 9.7815769710000033 9.4123895787345155 3.6190224289999997 O
atom 8.1516130290000000 0.9411542455201193 3.6190224289999997 O
atom 0.0000000000000008 3.7651817311026914 3.6190224289999997 O
atom 8.1512869710000047 12.2361346898059775 3.6190224289999997 O
atom 4.8907069710000037 10.3538261987657414 4.2478475709999994 Zn
atom 6.5209969710000015 1.8825908655513457 4.2478475709999994 Zn
atom -6.5208339419999977 13.1772889353261000 4.2478475709999994 Zn
atom 0.0000000000000033 13.1772889353261000 4.2478475709999994 Zn
atom 3.2605800000000040 13.1772889353261000 4.2478475709999994 Zn
atom -4.8910330289999973 10.3538261987657414 4.2478475709999994 Zn
atom -1.6301269709999981 10.3538261987657414 4.2478475709999994 Zn
atom 4.8907069710000020 4.7063359766228112 4.2478475709999994 Zn
atom 13.0424830290000013 1.8825908655513457 4.2478475709999994 Zn
atom 9.7815769710000016 1.8825908655513457 4.2478475709999994 Zn
atom 1.6304530290000003 4.7063359766228112 4.2478475709999994 Zn
atom -1.6304530289999992 4.7063359766228112 4.2478475709999994 Zn
atom 11.4121930290000027 4.7063359766228112 4.2478475709999994 Zn
atom -0.0001630289999995 1.8825908655513457 4.2478475709999994 Zn
atom 8.1512869710000029 4.7063359766228112 4.2478475709999994 Zn
atom 3.2605800000000023 7.5297987131831690 4.2478475709999994 Zn
atom 9.7820660580000034 7.5297987131831690 4.2478475709999994 Zn
atom -3.2602539419999981 13.1772889353261000 4.2478475709999994 Zn
atom 3.2607430289999999 1.8825908655513457 4.2478475709999994 Zn
atom 6.5211600000000027 7.5297987131831690 4.2478475709999994 Zn
atom 8.1516130290000035 10.3538261987657414 4.2478475709999994 Zn
atom 0.0003260580000011 7.5297987131831690 4.2478475709999994 Zn
atom 1.6301269710000030 10.3538261987657414 4.2478475709999994 Zn
atom -3.2602539419999985 7.5297987131831690 4.2478475709999994 Zn
atom 6.5214860580000042 13.1772889353261000 4.2478475709999994 Zn
atom 3.2605800000000023 7.5297987131831690 6.2413124289999997 O
atom 1.6304530290000003 4.7063359766228112 6.2413124289999997 O
atom -4.8910330289999973 10.3538261987657414 6.2413124289999997 O
atom 6.5209969710000015 1.8825908655513457 6.2413124289999997 O
atom 13.0424830290000013 1.8825908655513457 6.2413124289999997 O
atom 8.1512869710000029 4.7063359766228112 6.2413124289999997 O
atom -1.6301269709999981 10.3538261987657414 6.2413124289999997 O
atom 1.6301269710000030 10.3538261987657414 6.2413124289999997 O
atom 3.2607430289999999 1.8825908655513457 6.2413124289999997 O
atom 11.4121930290000027 4.7063359766228112 6.2413124289999997 O
atom -6.5208339419999977 13.1772889353261000 6.2413124289999997 O
atom 6.5211600000000027 7.5297987131831690 6.2413124289999997 O
atom -1.6304530289999992 4.7063359766228112 6.2413124289999997 O
atom 4.8907069710000020 4.7063359766228112 6.2413124289999997 O
atom 9.7820660580000034 7.5297987131831690 6.2413124289999997 O
atom 0.0000000000000033 13.1772889353261000 6.2413124289999997 O
atom 0.0003260580000011 7.5297987131831690 6.2413124289999997 O
atom 4.8907069710000037 10.3538261987657414 6.2413124289999997 O
atom -3.2602539419999981 13.1772889353261000 6.2413124289999997 O
atom 8.1516130290000035 10.3538261987657414 6.2413124289999997 O
atom -3.2602539419999985 7.5297987131831690 6.2413124289999997 O
atom -0.0001630289999995 1.8825908655513457 6.2413124289999997 O
atom 9.7815769710000016 1.8825908655513457 6.2413124289999997 O
atom 3.2605800000000040 13.1772889353261000 6.2413124289999997 O
atom 6.5214860580000042 13.1772889353261000 6.2413124289999997 O
atom 14.6724469710000012 0.9411542455201193 6.8701375709999999 Zn
atom 1.6304530290000001 0.9411542455201193 6.8701375709999999 Zn
atom 1.6304530290000021 12.2361346898059775 6.8701375709999999 Zn
atom 8.1512869710000011 6.5886444676630500 6.8701375709999999 Zn
atom 0.0001630290000038 9.4123895787345155 6.8701375709999999 Zn
atom -3.2604169709999984 9.4123895787345155 6.8701375709999999 Zn
atom 13.0419939420000031 3.7651817311026914 6.8701375709999999 Zn
atom 4.8910330290000017 6.5886444676630500 6.8701375709999999 Zn
atom 8.1516130290000000 0.9411542455201193 6.8701375709999999 Zn
atom -1.6304530289999988 6.5886444676630500 6.8701375709999999 Zn
atom 6.5213230290000030 9.4123895787345155 6.8701375709999999 Zn
atom 11.4121930290000009 0.9411542455201193 6.8701375709999999 Zn
atom 11.4118669710000020 6.5886444676630500 6.8701375709999999 Zn
atom 1.6304530290000032 6.5886444676630500 6.8701375709999999 Zn
atom -4.8910330289999973 12.2361346898059775 6.8701375709999999 Zn
atom 3.2605800000000031 3.7651817311026914 6.8701375709999999 Zn
atom 3.2607430290000021 9.4123895787345155 6.8701375709999999 Zn
atom 4.8910330290000052 12.2361346898059775 6.8701375709999999 Zn
atom 9.7815769710000033 9.4123895787345155 6.8701375709999999 Zn
atom -1.6304530289999968 12.2361346898059775 6.8701375709999999 Zn
atom 9.7817400000000028 3.7651817311026914 6.8701375709999999 Zn
atom 6.5211600000000010 3.7651817311026914 6.8701375709999999 Zn
atom 4.8910330290000026 0.9411542455201193 6.8701375709999999 Zn
atom 0.0000000000000008 3.7651817311026914 6.8701375709999999 Zn
atom 8.1512869710000047 12.2361346898059775 6.8701375709999999 Zn
atom 11.4121930290000009 0.9411542455201193 8.8636024289999984 O
atom 6.5211600000000010 3.7651817311026914 8.8636024289999984 O
atom 3.2607430290000021 9.4123895787345155 8.8636024289999984 O
atom 13.0419939420000031 3.7651817311026914 8.8636024289999984 O
atom 6.5213230290000030 9.4123895787345155 8.8636024289999984 O
atom 0.0001630290000038 9.4123895787345155 8.8636024289999984 O
atom 4.8910330290000026 0.9411542455201193 8.8636024289999984 O
atom 1.6304530290000032 6.5886444676630500 8.8636024289999984 O
atom 3.2605800000000031 3.7651817311026914 8.8636024289999984 O
atom 9.7817400000000028 3.7651817311026914 8.8636024289999984 O
atom 11.4118669710000020 6.5886444676630500 8.8636024289999984 O
atom 8.1516130290000000 0.9411542455201193 8.8636024289999984 O
atom 4.8910330290000052 12.2361346898059775 8.8636024289999984 O
atom -3.2604169709999984 9.4123895787345155 8.8636024289999984 O
atom 1.6304530290000021 12.2361346898059775 8.8636024289999984 O
atom 4.8910330290000017 6.5886444676630500 8.8636024289999984 O
atom 1.6304530290000001 0.9411542455201193 8.8636024289999984 O
atom 9.7815769710000033 9.4123895787345155 8.8636024289999984 O
atom 0.0000000000000008 3.7651817311026914 8.8636024289999984 O
atom 8.1512869710000011 6.5886444676630500 8.8636024289999984 O
atom 14.6724469710000012 0.9411542455201193 8.8636024289999984 O
atom -1.6304530289999968 12.2361346898059775 8.8636024289999984 O
atom -4.8910330289999973 12.2361346898059775 8.8636024289999984 O
atom -1.6304530289999988 6.5886444676630500 8.8636024289999984 O
atom 8.1512869710000047 12.2361346898059775 8.8636024289999984 O
atom 11.4121930290000027 4.7063359766228112 9.4924275709999986 Zn
atom 8.1512869710000029 4.7063359766228112 9.4924275709999986 Zn
atom 0.0000000000000033 13.1772889353261000 9.4924275709999986 Zn
atom -1.6301269709999981 10.3538261987657414 9.4924275709999986 Zn
atom 0.0003260580000011 7.5297987131831690 9.4924275709999986 Zn
atom -1.6304530289999992 4.7063359766228112 9.4924275709999986 Zn
atom 3.2605800000000040 13.1772889353261000 9.4924275709999986 Zn
atom 4.8907069710000020 4.7063359766228112 9.4924275709999986 Zn
atom 9.7820660580000034 7.5297987131831690 9.4924275709999986 Zn
atom -6.5208339419999977 13.1772889353261000 9.4924275709999986 Zn
atom -4.8910330289999973 10.3538261987657414 9.4924275709999986 Zn
atom 6.5211600000000027 7.5297987131831690 9.4924275709999986 Zn
atom 1.6301269710000030 10.3538261987657414 9.4924275709999986 Zn
atom 9.7815769710000016 1.8825908655513457 9.4924275709999986 Zn
atom -0.0001630289999995 1.8825908655513457 9.4924275709999986 Zn
atom 13.0424830290000013 1.8825908655513457 9.4924275709999986 Zn
atom 8.1516130290000035 10.3538261987657414 9.4924275709999986 Zn
atom 6.5209969710000015 1.8825908655513457 9.4924275709999986 Zn
atom 3.2607430289999999 1.8825908655513457 9.4924275709999986 Zn
atom -3.2602539419999985 7.5297987131831690 9.4924275709999986 Zn
atom -3.2602539419999981 13.1772889353261000 9.4924275709999986 Zn
atom 4.8907069710000037 10.3538261987657414 9.4924275709999986 Zn
atom 3.2605800000000023 7.5297987131831690 9.4924275709999986 Zn
atom 1.6304530290000003 4.7063359766228112 9.4924275709999986 Zn
atom 6.5214860580000042 13.1772889353261000 9.4924275709999986 Zn
atom -1.6301269709999981 10.3538261987657414 11.4858924289999997 O
atom 3.2605800000000040 13.1772889353261000 11.4858924289999997 O
atom 9.7815769710000016 1.8825908655513457 11.4858924289999997 O
atom 6.5211600000000027 7.5297987131831690 11.4858924289999997 O
atom -0.0001630289999995 1.8825908655513457 11.4858924289999997 O
atom -1.6304530289999992 4.7063359766228112 11.4858924289999997 O
atom 9.7820660580000034 7.5297987131831690 11.4858924289999997 O
atom 3.2605800000000023 7.5297987131831690 11.4858924289999997 O
atom 3.2607430289999999 1.8825908655513457 11.4858924289999997 O
atom -4.8910330289999973 10.3538261987657414 11.4858924289999997 O
atom -6.5208339419999977 13.1772889353261000 11.4858924289999997 O
atom 13.0424830290000013 1.8825908655513457 11.4858924289999997 O
atom 0.0000000000000033 13.1772889353261000 11.4858924289999997 O
atom 4.8907069710000020 4.7063359766228112 11.4858924289999997 O
atom 4.8907069710000037 10.3538261987657414 11.4858924289999997 O
atom 8.1516130290000035 10.3538261987657414 11.4858924289999997 O
atom 8.1512869710000029 4.7063359766228112 11.4858924289999997 O
atom 1.6304530290000003 4.7063359766228112 11.4858924289999997 O
atom -3.2602539419999985 7.5297987131831690 11.4858924289999997 O
atom 6.5209969710000015 1.8825908655513457 11.4858924289999997 O
atom 0.0003260580000011 7.5297987131831690 11.4858924289999997 O
atom 11.4121930290000027 4.7063359766228112 11.4858924289999997 O
atom 1.6301269710000030 10.3538261987657414 11.4858924289999997 O
atom -3.2602539419999981 13.1772889353261000 11.4858924289999997 O
atom 6.5214860580000042 13.1772889353261000 11.4858924289999997 O
atom 11.4118669710000020 6.5886444676630500 12.1147175709999999 Zn
atom -1.6304530289999988 6.5886444676630500 12.1147175709999999 Zn
atom 14.6724469710000012 0.9411542455201193 12.1147175709999999 Zn
atom 3.2607430290000021 9.4123895787345155 12.1147175709999999 Zn
atom 3.2605800000000031 3.7651817311026914 12.1147175709999999 Zn
atom -3.2604169709999984 9.4123895787345155 12.1147175709999999 Zn
atom 0.0000000000000008 3.7651817311026914 12.1147175709999999 Zn
atom 4.8910330290000017 6.5886444676630500 12.1147175709999999 Zn
atom 9.7815769710000033 9.4123895787345155 12.1147175709999999 Zn
atom 11.4121930290000009 0.9411542455201193 12.1147175709999999 Zn
atom 4.8910330290000026 0.9411542455201193 12.1147175709999999 Zn
atom 13.0419939420000031 3.7651817311026914 12.1147175709999999 Zn
atom 8.1512869710000011 6.5886444676630500 12.1147175709999999 Zn
atom 4.8910330290000052 12.2361346898059775 12.1147175709999999 Zn
atom 6.5211600000000010 3.7651817311026914 12.1147175709999999 Zn
atom 0.0001630290000038 9.4123895787345155 12.1147175709999999 Zn
atom 8.1516130290000000 0.9411542455201193 12.1147175709999999 Zn
atom 8.1512869710000047 12.2361346898059775 12.1147175709999999 Zn
atom -14.6726099999999935 27.2960144906834259 0.9967324290000000 O
atom -6.5211599999999956 18.8247791574690311 0.9967324290000000 O
atom -8.1512869709999958 21.6488066430515964 0.9967324290000000 O
atom -11.4120299999999926 27.2960144906834259 0.9967324290000000 O
atom -1.6302899999999967 16.0010340463975673 0.9967324290000000 O
atom -3.2605799999999956 18.8247791574690311 0.9967324290000000 O
atom -4.8907069709999940 21.6488066430515964 0.9967324290000000 O
atom -6.5211599999999939 24.4722693796119550 0.9967324290000000 O
atom -8.1514499999999934 27.2960144906834259 0.9967324290000000 O
atom 1.6302900000000042 16.0010340463975673 0.9967324290000000 O
atom -1.6301269709999906 21.6488066430515964 0.9967324290000000 O
atom -3.2605799999999929 24.4722693796119550 0.9967324290000000 O
atom -4.8908699999999916 27.2960144906834259 0.9967324290000000 O
atom 4.8908700000000032 16.0010340463975673 0.9967324290000000 O
atom 3.2609060580000051 18.8247791574690311 0.9967324290000000 O
atom 1.6304530290000068 21.6488066430515964 0.9967324290000000 O
atom 0.0000000000000063 24.4722693796119550 0.9967324290000000 O
atom -1.6302899999999927 27.2960144906834259 0.9967324290000000 O
atom -3.2604169709999957 20.7073700230203777 1.6255575710000003 Zn
atom -4.8910330289999946 17.8836249119489104 1.6255575710000003 Zn
atom -4.8907069709999949 23.5311151340918414 1.6255575710000003 Zn
atom -11.4121930289999955 23.5311151340918414 1.6255575710000003 Zn
atom -6.5209969709999935 26.3548602451633052 1.6255575710000003 Zn
atom -6.5209969709999944 20.7073700230203777 1.6255575710000003 Zn
atom 3.2605800000000040 15.0601621753885535 1.6255575710000003 Zn
atom -6.5211599999999974 15.0601621753885535 1.6255575710000003 Zn
atom 1.6304530290000059 17.8836249119489104 1.6255575710000003 Zn
atom -8.1512869709999940 23.5311151340918414 1.6255575710000003 Zn
atom -0.0001630289999956 20.7073700230203777 1.6255575710000003 Zn
atom -13.0424830289999942 26.3548602451633052 1.6255575710000003 Zn
atom -1.6304530289999946 23.5311151340918414 1.6255575710000003 Zn
atom -9.7819030289999933 26.3548602451633052 1.6255575710000003 Zn
atom -3.2607430289999937 26.3548602451633052 1.6255575710000003 Zn
atom -9.7819030289999969 20.7073700230203777 1.6255575710000003 Zn
atom 6.5208339420000039 15.0601621753885535 1.6255575710000003 Zn
atom 0.0000000000000029 15.0601621753885535 1.6255575710000003 Zn
atom 4.8907069710000064 17.8836249119489104 1.6255575710000003 Zn
atom -3.2605799999999951 15.0601621753885535 1.6255575710000003 Zn
atom 3.2604169710000055 20.7073700230203777 1.6255575710000003 Zn
atom -1.6301269709999950 17.8836249119489104 1.6255575710000003 Zn
atom 1.6301269710000064 23.5311151340918414 1.6255575710000003 Zn
atom -8.1516130289999946 17.8836249119489104 1.6255575710000003 Zn
atom -0.0001630289999927 26.3548602451633052 1.6255575710000003 Zn
atom 1.6304530290000059 17.8836249119489104 3.6190224289999997 O
atom -6.5209969709999944 20.7073700230203777 3.6190224289999997 O
atom -1.6301269709999950 17.8836249119489104 3.6190224289999997 O
atom -0.0001630289999956 20.7073700230203777 3.6190224289999997 O
atom -11.4121930289999955 23.5311151340918414 3.6190224289999997 O
atom -3.2605799999999951 15.0601621753885535 3.6190224289999997 O
atom -1.6304530289999946 23.5311151340918414 3.6190224289999997 O
atom -3.2604169709999957 20.7073700230203777 3.6190224289999997 O
atom -8.1512869709999940 23.5311151340918414 3.6190224289999997 O
atom -3.2607430289999937 26.3548602451633052 3.6190224289999997 O
atom -9.7819030289999969 20.7073700230203777 3.6190224289999997 O
atom -4.8907069709999949 23.5311151340918414 3.6190224289999997 O
atom 6.5208339420000039 15.0601621753885535 3.6190224289999997 O
atom -6.5211599999999974 15.0601621753885535 3.6190224289999997 O
atom -9.7819030289999933 26.3548602451633052 3.6190224289999997 O
atom 4.8907069710000064 17.8836249119489104 3.6190224289999997 O
atom -6.5209969709999935 26.3548602451633052 3.6190224289999997 O
atom -4.8910330289999946 17.8836249119489104 3.6190224289999997 O
atom 3.2604169710000055 20.7073700230203777 3.6190224289999997 O
atom -13.0424830289999942 26.3548602451633052 3.6190224289999997 O
atom 3.2605800000000040 15.0601621753885535 3.6190224289999997 O
atom 1.6301269710000064 23.5311151340918414 3.6190224289999997 O
atom 0.0000000000000029 15.0601621753885535 3.6190224289999997 O
atom -8.1516130289999946 17.8836249119489104 3.6190224289999997 O
atom -0.0001630289999927 26.3548602451633052 3.6190224289999997 O
atom -3.2605799999999929 24.4722693796119550 4.2478475709999994 Zn
atom -1.6302899999999967 16.0010340463975673 4.2478475709999994 Zn
atom -14.6726099999999935 27.2960144906834259 4.2478475709999994 Zn
atom -8.1514499999999934 27.2960144906834259 4.2478475709999994 Zn
atom -4.8908699999999916 27.2960144906834259 4.2478475709999994 Zn
atom -13.0423199999999948 24.4722693796119550 4.2478475709999994 Zn
atom -9.7814139419999950 24.4722693796119550 4.2478475709999994 Zn
atom -3.2605799999999956 18.8247791574690311 4.2478475709999994 Zn
atom 4.8908700000000032 16.0010340463975673 4.2478475709999994 Zn
atom 1.6302900000000042 16.0010340463975673 4.2478475709999994 Zn
atom -6.5211599999999956 18.8247791574690311 4.2478475709999994 Zn
atom -9.7817399999999957 18.8247791574690311 4.2478475709999994 Zn
atom 3.2609060580000051 18.8247791574690311 4.2478475709999994 Zn
atom -8.1514499999999970 16.0010340463975673 4.2478475709999994 Zn
atom 0.0000000000000052 18.8247791574690311 4.2478475709999994 Zn
atom -4.8907069709999940 21.6488066430515964 4.2478475709999994 Zn
atom 1.6304530290000068 21.6488066430515964 4.2478475709999994 Zn
atom -11.4120299999999926 27.2960144906834259 4.2478475709999994 Zn
atom -4.8905439419999981 16.0010340463975673 4.2478475709999994 Zn
atom -1.6301269709999906 21.6488066430515964 4.2478475709999994 Zn
atom 0.0000000000000063 24.4722693796119550 4.2478475709999994 Zn
atom -8.1512869709999958 21.6488066430515964 4.2478475709999994 Zn
atom -6.5211599999999939 24.4722693796119550 4.2478475709999994 Zn
atom -11.4118669709999949 21.6488066430515964 4.2478475709999994 Zn
atom -1.6302899999999927 27.2960144906834259 4.2478475709999994 Zn
atom -4.8907069709999940 21.6488066430515964 6.2413124289999997 O
atom -6.5211599999999956 18.8247791574690311 6.2413124289999997 O
atom -13.0423199999999948 24.4722693796119550 6.2413124289999997 O
atom -1.6302899999999967 16.0010340463975673 6.2413124289999997 O
atom 4.8908700000000032 16.0010340463975673 6.2413124289999997 O
atom 0.0000000000000052 18.8247791574690311 6.2413124289999997 O
atom -9.7814139419999950 24.4722693796119550 6.2413124289999997 O
atom -6.5211599999999939 24.4722693796119550 6.2413124289999997 O
atom -4.8905439419999981 16.0010340463975673 6.2413124289999997 O
atom 3.2609060580000051 18.8247791574690311 6.2413124289999997 O
atom -14.6726099999999935 27.2960144906834259 6.2413124289999997 O
atom -1.6301269709999906 21.6488066430515964 6.2413124289999997 O
atom -9.7817399999999957 18.8247791574690311 6.2413124289999997 O
atom -3.2605799999999956 18.8247791574690311 6.2413124289999997 O
atom 1.6304530290000068 21.6488066430515964 6.2413124289999997 O
atom -8.1514499999999934 27.2960144906834259 6.2413124289999997 O
atom -8.1512869709999958 21.6488066430515964 6.2413124289999997 O
atom -3.2605799999999929 24.4722693796119550 6.2413124289999997 O
atom -11.4120299999999926 27.2960144906834259 6.2413124289999997 O
atom 0.0000000000000063 24.4722693796119550 6.2413124289999997 O
atom -11.4118669709999949 21.6488066430515964 6.2413124289999997 O
atom -8.1514499999999970 16.0010340463975673 6.2413124289999997 O
atom 1.6302900000000042 16.0010340463975673 6.2413124289999997 O
atom -4.8908699999999916 27.2960144906834259 6.2413124289999997 O
atom -1.6302899999999927 27.2960144906834259 6.2413124289999997 O
atom 6.5208339420000039 15.0601621753885535 6.8701375709999999 Zn
atom -6.5211599999999974 15.0601621753885535 6.8701375709999999 Zn
atom -6.5209969709999935 26.3548602451633052 6.8701375709999999 Zn
atom -0.0001630289999956 20.7073700230203777 6.8701375709999999 Zn
atom -8.1512869709999940 23.5311151340918414 6.8701375709999999 Zn
atom -11.4121930289999955 23.5311151340918414 6.8701375709999999 Zn
atom 4.8907069710000064 17.8836249119489104 6.8701375709999999 Zn
atom -3.2604169709999957 20.7073700230203777 6.8701375709999999 Zn
atom 0.0000000000000029 15.0601621753885535 6.8701375709999999 Zn
atom -9.7819030289999969 20.7073700230203777 6.8701375709999999 Zn
atom -1.6304530289999946 23.5311151340918414 6.8701375709999999 Zn
atom 3.2605800000000040 15.0601621753885535 6.8701375709999999 Zn
atom 3.2604169710000055 20.7073700230203777 6.8701375709999999 Zn
atom -6.5209969709999944 20.7073700230203777 6.8701375709999999 Zn
atom -13.0424830289999942 26.3548602451633052 6.8701375709999999 Zn
atom -4.8910330289999946 17.8836249119489104 6.8701375709999999 Zn
atom -4.8907069709999949 23.5311151340918414 6.8701375709999999 Zn
atom -3.2607430289999937 26.3548602451633052 6.8701375709999999 Zn
atom 1.6301269710000064 23.5311151340918414 6.8701375709999999 Zn
atom -9.7819030289999933 26.3548602451633052 6.8701375709999999 Zn
atom 1.6304530290000059 17.8836249119489104 6.8701375709999999 Zn
atom -1.6301269709999950 17.8836249119489104 6.8701375709999999 Zn
atom -3.2605799999999951 15.0601621753885535 6.8701375709999999 Zn
atom -8.1516130289999946 17.8836249119489104 6.8701375709999999 Zn
atom -0.0001630289999927 26.3548602451633052 6.8701375709999999 Zn
atom 3.2605800000000040 15.0601621753885535 8.8636024289999984 O
atom -1.6301269709999950 17.8836249119489104 8.8636024289999984 O
atom -4.8907069709999949 23.5311151340918414 8.8636024289999984 O
atom 4.8907069710000064 17.8836249119489104 8.8636024289999984 O
atom -1.6304530289999946 23.5311151340918414 8.8636024289999984 O
atom -8.1512869709999940 23.5311151340918414 8.8636024289999984 O
atom -3.2605799999999951 15.0601621753885535 8.8636024289999984 O
atom -6.5209969709999944 20.7073700230203777 8.8636024289999984 O
atom -4.8910330289999946 17.8836249119489104 8.8636024289999984 O
atom 1.6304530290000059 17.8836249119489104 8.8636024289999984 O
atom 3.2604169710000055 20.7073700230203777 8.8636024289999984 O
atom 0.0000000000000029 15.0601621753885535 8.8636024289999984 O
atom -3.2607430289999937 26.3548602451633052 8.8636024289999984 O
atom -11.4121930289999955 23.5311151340918414 8.8636024289999984 O
atom -6.5209969709999935 26.3548602451633052 8.8636024289999984 O
atom -3.2604169709999957 20.7073700230203777 8.8636024289999984 O
atom -6.5211599999999974 15.0601621753885535 8.8636024289999984 O
atom 1.6301269710000064 23.5311151340918414 8.8636024289999984 O
atom -8.1516130289999946 17.8836249119489104 8.8636024289999984 O
atom -0.0001630289999956 20.7073700230203777 8.8636024289999984 O
atom 6.5208339420000039 15.0601621753885535 8.8636024289999984 O
atom -9.7819030289999933 26.3548602451633052 8.8636024289999984 O
atom -13.0424830289999942 26.3548602451633052 8.8636024289999984 O
atom -9.7819030289999969 20.7073700230203777 8.8636024289999984 O
atom -0.0001630289999927 26.3548602451633052 8.8636024289999984 O
atom 3.2609060580000051 18.8247791574690311 9.4924275709999986 Zn
atom 0.0000000000000052 18.8247791574690311 9.4924275709999986 Zn
atom -8.1514499999999934 27.2960144906834259 9.4924275709999986 Zn
atom -9.7814139419999950 24.4722693796119550 9.4924275709999986 Zn
atom -8.1512869709999958 21.6488066430515964 9.4924275709999986 Zn
atom -9.7817399999999957 18.8247791574690311 9.4924275709999986 Zn
atom -4.8908699999999916 27.2960144906834259 9.4924275709999986 Zn
atom -3.2605799999999956 18.8247791574690311 9.4924275709999986 Zn
atom 1.6304530290000068 21.6488066430515964 9.4924275709999986 Zn
atom -14.6726099999999935 27.2960144906834259 9.4924275709999986 Zn
atom -13.0423199999999948 24.4722693796119550 9.4924275709999986 Zn
atom -1.6301269709999906 21.6488066430515964 9.4924275709999986 Zn
atom -6.5211599999999939 24.4722693796119550 9.4924275709999986 Zn
atom 1.6302900000000042 16.0010340463975673 9.4924275709999986 Zn
atom -8.1514499999999970 16.0010340463975673 9.4924275709999986 Zn
atom 4.8908700000000032 16.0010340463975673 9.4924275709999986 Zn
atom 0.0000000000000063 24.4722693796119550 9.4924275709999986 Zn
atom -1.6302899999999967 16.0010340463975673 9.4924275709999986 Zn
atom -4.8905439419999981 16.0010340463975673 9.4924275709999986 Zn
atom -11.4118669709999949 21.6488066430515964 9.4924275709999986 Zn
atom -11.4120299999999926 27.2960144906834259 9.4924275709999986 Zn
atom -3.2605799999999929 24.4722693796119550 9.4924275709999986 Zn
atom -4.8907069709999940 21.6488066430515964 9.4924275709999986 Zn
atom -6.5211599999999956 18.8247791574690311 9.4924275709999986 Zn
atom -1.6302899999999927 27.2960144906834259 9.4924275709999986 Zn
atom -9.7814139419999950 24.4722693796119550 11.4858924289999997 O
atom -4.8908699999999916 27.2960144906834259 11.4858924289999997 O
atom 1.6302900000000042 16.0010340463975673 11.4858924289999997 O
atom -1.6301269709999906 21.6488066430515964 11.4858924289999997 O
atom -8.1514499999999970 16.0010340463975673 11.4858924289999997 O
atom -9.7817399999999957 18.8247791574690311 11.4858924289999997 O
atom 1.6304530290000068 21.6488066430515964 11.4858924289999997 O
atom -4.8907069709999940 21.6488066430515964 11.4858924289999997 O
atom -4.8905439419999981 16.0010340463975673 11.4858924289999997 O
atom -13.0423199999999948 24.4722693796119550 11.4858924289999997 O
atom -14.6726099999999935 27.2960144906834259 11.4858924289999997 O
atom 4.8908700000000032 16.0010340463975673 11.4858924289999997 O
atom -8.1514499999999934 27.2960144906834259 11.4858924289999997 O
atom -3.2605799999999956 18.8247791574690311 11.4858924289999997 O
atom -3.2605799999999929 24.4722693796119550 11.4858924289999997 O
atom 0.0000000000000063 24.4722693796119550 11.4858924289999997 O
atom 0.0000000000000052 18.8247791574690311 11.4858924289999997 O
atom -6.5211599999999956 18.8247791574690311 11.4858924289999997 O
atom -11.4118669709999949 21.6488066430515964 11.4858924289999997 O