#=======================================================
# FHI-aims file: ./geometry.in
# Created using the Atomic Simulation Environment (ASE)
# Mon Nov 27 10:18:17 2023
#=======================================================
lattice_vector 16.3029000000000011 0.0000000000000000 0.0000000000000000 
lattice_vector -8.1514500000000005 14.1187255999999994 0.0000000000000000 
lattice_vector 0.0000000000000000 0.0000000000000000 26.2228999999999992 
atom_frac 0.0666699993149166 0.9333299986298332 0.3623812066361844 O
atom_frac 0.2666700002635011 0.3333300005270020 0.3623812066361844 O
atom_frac 0.2666699999473061 0.5333299998946123 0.3623812066361844 O
atom_frac 0.2666699993149166 0.9333299986298332 0.3623812066361844 O
atom_frac 0.4666700005796955 0.1333300011593914 0.3623812066361844 O
atom_frac 0.4666700002635008 0.3333300005270020 0.3623812066361844 O
atom_frac 0.4666699999473060 0.5333299998946123 0.3623812066361844 O
atom_frac 0.4666699996311113 0.7333299992622229 0.3623812066361844 O
atom_frac 0.4666699993149167 0.9333299986298332 0.3623812066361844 O
atom_frac 0.6666700005796954 0.1333300011593914 0.3623812066361844 O
atom_frac 0.6666699999473062 0.5333299998946123 0.3623812066361844 O
atom_frac 0.6666699996311113 0.7333299992622229 0.3623812066361844 O
atom_frac 0.6666699993149166 0.9333299986298332 0.3623812066361844 O
atom_frac 0.8666700005796955 0.1333300011593914 0.3623812066361844 O
atom_frac 0.8666700002635008 0.3333300005270020 0.3623812066361844 O
atom_frac 0.8666699999473064 0.5333299998946123 0.3623812066361844 O
atom_frac 0.8666699996311112 0.7333299992622229 0.3623812066361844 O
atom_frac 0.8666699993149167 0.9333299986298332 0.3623812066361844 O
atom_frac 0.5333300000526938 0.4666700001053877 0.3863612066361845 Zn
atom_frac 0.3333300003688885 0.2666700007377773 0.3863612066361845 Zn
atom_frac 0.5333299997364991 0.6666699994729982 0.3863612066361845 Zn
atom_frac 0.1333299997364990 0.6666699994729982 0.3863612066361845 Zn
atom_frac 0.5333299994203043 0.8666699988406087 0.3863612066361845 Zn
atom_frac 0.3333300000526938 0.4666700001053877 0.3863612066361845 Zn
atom_frac 0.7333300006850842 0.0666700013701668 0.3863612066361845 Zn
atom_frac 0.1333300006850833 0.0666700013701668 0.3863612066361845 Zn
atom_frac 0.7333300003688884 0.2666700007377773 0.3863612066361845 Zn
atom_frac 0.3333299997364990 0.6666699994729982 0.3863612066361845 Zn
atom_frac 0.7333300000526937 0.4666700001053877 0.3863612066361845 Zn
atom_frac 0.1333299994203044 0.8666699988406087 0.3863612066361845 Zn
atom_frac 0.7333299997364990 0.6666699994729982 0.3863612066361845 Zn
atom_frac 0.3333299994203043 0.8666699988406087 0.3863612066361845 Zn
atom_frac 0.7333299994203051 0.8666699988406087 0.3863612066361845 Zn
atom_frac 0.1333300000526937 0.4666700001053877 0.3863612066361845 Zn
atom_frac 0.9333300006850836 0.0666700013701668 0.3863612066361845 Zn
atom_frac 0.5333300006850837 0.0666700013701668 0.3863612066361845 Zn
atom_frac 0.9333300003688884 0.2666700007377773 0.3863612066361845 Zn
atom_frac 0.3333300006850832 0.0666700013701668 0.3863612066361845 Zn
atom_frac 0.9333300000526936 0.4666700001053877 0.3863612066361845 Zn
atom_frac 0.5333300003688889 0.2666700007377773 0.3863612066361845 Zn
atom_frac 0.9333299997364990 0.6666699994729982 0.3863612066361845 Zn
atom_frac 0.1333300003688885 0.2666700007377773 0.3863612066361845 Zn
atom_frac 0.9333299994203043 0.8666699988406087 0.3863612066361845 Zn
atom_frac 0.7333300003688884 0.2666700007377773 0.4623812066361844 O
atom_frac 0.3333300000526938 0.4666700001053877 0.4623812066361844 O
atom_frac 0.5333300003688889 0.2666700007377773 0.4623812066361844 O
atom_frac 0.7333300000526937 0.4666700001053877 0.4623812066361844 O
atom_frac 0.1333299997364990 0.6666699994729982 0.4623812066361844 O
atom_frac 0.3333300006850832 0.0666700013701668 0.4623812066361844 O
atom_frac 0.7333299997364990 0.6666699994729982 0.4623812066361844 O
atom_frac 0.5333300000526938 0.4666700001053877 0.4623812066361844 O
atom_frac 0.3333299997364990 0.6666699994729982 0.4623812066361844 O
atom_frac 0.7333299994203051 0.8666699988406087 0.4623812066361844 O
atom_frac 0.1333300000526937 0.4666700001053877 0.4623812066361844 O
atom_frac 0.5333299997364991 0.6666699994729982 0.4623812066361844 O
atom_frac 0.9333300006850836 0.0666700013701668 0.4623812066361844 O
atom_frac 0.1333300006850833 0.0666700013701668 0.4623812066361844 O
atom_frac 0.3333299994203043 0.8666699988406087 0.4623812066361844 O
atom_frac 0.9333300003688884 0.2666700007377773 0.4623812066361844 O
atom_frac 0.5333299994203043 0.8666699988406087 0.4623812066361844 O
atom_frac 0.3333300003688885 0.2666700007377773 0.4623812066361844 O
atom_frac 0.9333300000526936 0.4666700001053877 0.4623812066361844 O
atom_frac 0.1333299994203044 0.8666699988406087 0.4623812066361844 O
atom_frac 0.7333300006850842 0.0666700013701668 0.4623812066361844 O
atom_frac 0.9333299997364990 0.6666699994729982 0.4623812066361844 O
atom_frac 0.5333300006850837 0.0666700013701668 0.4623812066361844 O
atom_frac 0.1333300003688885 0.2666700007377773 0.4623812066361844 O
atom_frac 0.9333299994203043 0.8666699988406087 0.4623812066361844 O
atom_frac 0.6666699996311113 0.7333299992622229 0.4863612066361844 Zn
atom_frac 0.4666700005796955 0.1333300011593914 0.4863612066361844 Zn
atom_frac 0.0666699993149166 0.9333299986298332 0.4863612066361844 Zn
atom_frac 0.4666699993149167 0.9333299986298332 0.4863612066361844 Zn
atom_frac 0.6666699993149166 0.9333299986298332 0.4863612066361844 Zn
atom_frac 0.0666699996311114 0.7333299992622229 0.4863612066361844 Zn
atom_frac 0.2666699996311114 0.7333299992622229 0.4863612066361844 Zn
atom_frac 0.4666700002635008 0.3333300005270020 0.4863612066361844 Zn
atom_frac 0.8666700005796955 0.1333300011593914 0.4863612066361844 Zn
atom_frac 0.6666700005796954 0.1333300011593914 0.4863612066361844 Zn
atom_frac 0.2666700002635011 0.3333300005270020 0.4863612066361844 Zn
atom_frac 0.0666700002635008 0.3333300005270020 0.4863612066361844 Zn
atom_frac 0.8666700002635008 0.3333300005270020 0.4863612066361844 Zn
atom_frac 0.0666700005796955 0.1333300011593914 0.4863612066361844 Zn
atom_frac 0.6666700002635008 0.3333300005270020 0.4863612066361844 Zn
atom_frac 0.4666699999473060 0.5333299998946123 0.4863612066361844 Zn
atom_frac 0.8666699999473064 0.5333299998946123 0.4863612066361844 Zn
atom_frac 0.2666699993149166 0.9333299986298332 0.4863612066361844 Zn
atom_frac 0.2666700005796955 0.1333300011593914 0.4863612066361844 Zn
atom_frac 0.6666699999473062 0.5333299998946123 0.4863612066361844 Zn
atom_frac 0.8666699996311112 0.7333299992622229 0.4863612066361844 Zn
atom_frac 0.2666699999473061 0.5333299998946123 0.4863612066361844 Zn
atom_frac 0.4666699996311113 0.7333299992622229 0.4863612066361844 Zn
atom_frac 0.0666699999473060 0.5333299998946123 0.4863612066361844 Zn
atom_frac 0.8666699993149167 0.9333299986298332 0.4863612066361844 Zn
atom_frac 0.4666699999473060 0.5333299998946123 0.5623812066361844 O
    constrain_relaxation .true.
atom_frac 0.2666700002635011 0.3333300005270020 0.5623812066361844 O
    constrain_relaxation .true.
atom_frac 0.0666699996311114 0.7333299992622229 0.5623812066361844 O
    constrain_relaxation .true.
atom_frac 0.4666700005796955 0.1333300011593914 0.5623812066361844 O
    constrain_relaxation .true.
atom_frac 0.8666700005796955 0.1333300011593914 0.5623812066361844 O
    constrain_relaxation .true.
atom_frac 0.6666700002635008 0.3333300005270020 0.5623812066361844 O
    constrain_relaxation .true.
atom_frac 0.2666699996311114 0.7333299992622229 0.5623812066361844 O
    constrain_relaxation .true.
atom_frac 0.4666699996311113 0.7333299992622229 0.5623812066361844 O
    constrain_relaxation .true.
atom_frac 0.2666700005796955 0.1333300011593914 0.5623812066361844 O
    constrain_relaxation .true.
atom_frac 0.8666700002635008 0.3333300005270020 0.5623812066361844 O
    constrain_relaxation .true.
atom_frac 0.0666699993149166 0.9333299986298332 0.5623812066361844 O
    constrain_relaxation .true.
atom_frac 0.6666699999473062 0.5333299998946123 0.5623812066361844 O
    constrain_relaxation .true.
atom_frac 0.0666700002635008 0.3333300005270020 0.5623812066361844 O
    constrain_relaxation .true.
atom_frac 0.4666700002635008 0.3333300005270020 0.5623812066361844 O
    constrain_relaxation .true.
atom_frac 0.8666699999473064 0.5333299998946123 0.5623812066361844 O
    constrain_relaxation .true.
atom_frac 0.4666699993149167 0.9333299986298332 0.5623812066361844 O
    constrain_relaxation .true.
atom_frac 0.2666699999473061 0.5333299998946123 0.5623812066361844 O
    constrain_relaxation .true.
atom_frac 0.6666699996311113 0.7333299992622229 0.5623812066361844 O
    constrain_relaxation .true.
atom_frac 0.2666699993149166 0.9333299986298332 0.5623812066361844 O
    constrain_relaxation .true.
atom_frac 0.8666699996311112 0.7333299992622229 0.5623812066361844 O
    constrain_relaxation .true.
atom_frac 0.0666699999473060 0.5333299998946123 0.5623812066361844 O
    constrain_relaxation .true.
atom_frac 0.0666700005796955 0.1333300011593914 0.5623812066361844 O
    constrain_relaxation .true.
atom_frac 0.6666700005796954 0.1333300011593914 0.5623812066361844 O
    constrain_relaxation .true.
atom_frac 0.6666699993149166 0.9333299986298332 0.5623812066361844 O
    constrain_relaxation .true.
atom_frac 0.8666699993149167 0.9333299986298332 0.5623812066361844 O
    constrain_relaxation .true.
atom_frac 0.9333300006850836 0.0666700013701668 0.5863612066361844 Zn
    constrain_relaxation .true.
atom_frac 0.1333300006850833 0.0666700013701668 0.5863612066361844 Zn
    constrain_relaxation .true.
atom_frac 0.5333299994203043 0.8666699988406087 0.5863612066361844 Zn
    constrain_relaxation .true.
atom_frac 0.7333300000526937 0.4666700001053877 0.5863612066361844 Zn
    constrain_relaxation .true.
atom_frac 0.3333299997364990 0.6666699994729982 0.5863612066361844 Zn
    constrain_relaxation .true.
atom_frac 0.1333299997364990 0.6666699994729982 0.5863612066361844 Zn
    constrain_relaxation .true.
atom_frac 0.9333300003688884 0.2666700007377773 0.5863612066361844 Zn
    constrain_relaxation .true.
atom_frac 0.5333300000526938 0.4666700001053877 0.5863612066361844 Zn
    constrain_relaxation .true.
atom_frac 0.5333300006850837 0.0666700013701668 0.5863612066361844 Zn
    constrain_relaxation .true.
atom_frac 0.1333300000526937 0.4666700001053877 0.5863612066361844 Zn
    constrain_relaxation .true.
atom_frac 0.7333299997364990 0.6666699994729982 0.5863612066361844 Zn
    constrain_relaxation .true.
atom_frac 0.7333300006850842 0.0666700013701668 0.5863612066361844 Zn
    constrain_relaxation .true.
atom_frac 0.9333300000526936 0.4666700001053877 0.5863612066361844 Zn
    constrain_relaxation .true.
atom_frac 0.3333300000526938 0.4666700001053877 0.5863612066361844 Zn
    constrain_relaxation .true.
atom_frac 0.1333299994203044 0.8666699988406087 0.5863612066361844 Zn
    constrain_relaxation .true.
atom_frac 0.3333300003688885 0.2666700007377773 0.5863612066361844 Zn
    constrain_relaxation .true.
atom_frac 0.5333299997364991 0.6666699994729982 0.5863612066361844 Zn
    constrain_relaxation .true.
atom_frac 0.7333299994203051 0.8666699988406087 0.5863612066361844 Zn
    constrain_relaxation .true.
atom_frac 0.9333299997364990 0.6666699994729982 0.5863612066361844 Zn
    constrain_relaxation .true.
atom_frac 0.3333299994203043 0.8666699988406087 0.5863612066361844 Zn
    constrain_relaxation .true.
atom_frac 0.7333300003688884 0.2666700007377773 0.5863612066361844 Zn
    constrain_relaxation .true.
atom_frac 0.5333300003688889 0.2666700007377773 0.5863612066361844 Zn
    constrain_relaxation .true.
atom_frac 0.3333300006850832 0.0666700013701668 0.5863612066361844 Zn
    constrain_relaxation .true.
atom_frac 0.1333300003688885 0.2666700007377773 0.5863612066361844 Zn
    constrain_relaxation .true.
atom_frac 0.9333299994203043 0.8666699988406087 0.5863612066361844 Zn
    constrain_relaxation .true.
atom_frac 0.7333300006850842 0.0666700013701668 0.6623812066361844 O
atom_frac 0.5333300003688889 0.2666700007377773 0.6623812066361844 O
atom_frac 0.5333299997364991 0.6666699994729982 0.6623812066361844 O
atom_frac 0.9333300003688884 0.2666700007377773 0.6623812066361844 O
atom_frac 0.7333299997364990 0.6666699994729982 0.6623812066361844 O
atom_frac 0.3333299997364990 0.6666699994729982 0.6623812066361844 O
atom_frac 0.3333300006850832 0.0666700013701668 0.6623812066361844 O
atom_frac 0.3333300000526938 0.4666700001053877 0.6623812066361844 O
atom_frac 0.3333300003688885 0.2666700007377773 0.6623812066361844 O
atom_frac 0.7333300003688884 0.2666700007377773 0.6623812066361844 O
atom_frac 0.9333300000526936 0.4666700001053877 0.6623812066361844 O
atom_frac 0.5333300006850837 0.0666700013701668 0.6623812066361844 O
atom_frac 0.7333299994203051 0.8666699988406087 0.6623812066361844 O
atom_frac 0.1333299997364990 0.6666699994729982 0.6623812066361844 O
atom_frac 0.5333299994203043 0.8666699988406087 0.6623812066361844 O
atom_frac 0.5333300000526938 0.4666700001053877 0.6623812066361844 O
atom_frac 0.1333300006850833 0.0666700013701668 0.6623812066361844 O
atom_frac 0.9333299997364990 0.6666699994729982 0.6623812066361844 O
atom_frac 0.1333300003688885 0.2666700007377773 0.6623812066361844 O
atom_frac 0.7333300000526937 0.4666700001053877 0.6623812066361844 O
atom_frac 0.9333300006850836 0.0666700013701668 0.6623812066361844 O
atom_frac 0.3333299994203043 0.8666699988406087 0.6623812066361844 O
atom_frac 0.1333299994203044 0.8666699988406087 0.6623812066361844 O
atom_frac 0.1333300000526937 0.4666700001053877 0.6623812066361844 O
atom_frac 0.9333299994203043 0.8666699988406087 0.6623812066361844 O
atom_frac 0.8666700002635008 0.3333300005270020 0.6863612066361844 Zn
atom_frac 0.6666700002635008 0.3333300005270020 0.6863612066361844 Zn
atom_frac 0.4666699993149167 0.9333299986298332 0.6863612066361844 Zn
atom_frac 0.2666699996311114 0.7333299992622229 0.6863612066361844 Zn
atom_frac 0.2666699999473061 0.5333299998946123 0.6863612066361844 Zn
atom_frac 0.0666700002635008 0.3333300005270020 0.6863612066361844 Zn
atom_frac 0.6666699993149166 0.9333299986298332 0.6863612066361844 Zn
atom_frac 0.4666700002635008 0.3333300005270020 0.6863612066361844 Zn
atom_frac 0.8666699999473064 0.5333299998946123 0.6863612066361844 Zn
atom_frac 0.0666699993149166 0.9333299986298332 0.6863612066361844 Zn
atom_frac 0.0666699996311114 0.7333299992622229 0.6863612066361844 Zn
atom_frac 0.6666699999473062 0.5333299998946123 0.6863612066361844 Zn
atom_frac 0.4666699996311113 0.7333299992622229 0.6863612066361844 Zn
atom_frac 0.6666700005796954 0.1333300011593914 0.6863612066361844 Zn
atom_frac 0.0666700005796955 0.1333300011593914 0.6863612066361844 Zn
atom_frac 0.8666700005796955 0.1333300011593914 0.6863612066361844 Zn
atom_frac 0.8666699996311112 0.7333299992622229 0.6863612066361844 Zn
atom_frac 0.4666700005796955 0.1333300011593914 0.6863612066361844 Zn
atom_frac 0.2666700005796955 0.1333300011593914 0.6863612066361844 Zn
atom_frac 0.0666699999473060 0.5333299998946123 0.6863612066361844 Zn
atom_frac 0.2666699993149166 0.9333299986298332 0.6863612066361844 Zn
atom_frac 0.6666699996311113 0.7333299992622229 0.6863612066361844 Zn
atom_frac 0.4666699999473060 0.5333299998946123 0.6863612066361844 Zn
atom_frac 0.2666700002635011 0.3333300005270020 0.6863612066361844 Zn
atom_frac 0.8666699993149167 0.9333299986298332 0.6863612066361844 Zn
atom_frac 0.2666699996311114 0.7333299992622229 0.7623812066361844 O
atom_frac 0.6666699993149166 0.9333299986298332 0.7623812066361844 O
atom_frac 0.6666700005796954 0.1333300011593914 0.7623812066361844 O
atom_frac 0.6666699999473062 0.5333299998946123 0.7623812066361844 O
atom_frac 0.0666700005796955 0.1333300011593914 0.7623812066361844 O
atom_frac 0.0666700002635008 0.3333300005270020 0.7623812066361844 O
atom_frac 0.8666699999473064 0.5333299998946123 0.7623812066361844 O
atom_frac 0.4666699999473060 0.5333299998946123 0.7623812066361844 O
atom_frac 0.2666700005796955 0.1333300011593914 0.7623812066361844 O
atom_frac 0.0666699996311114 0.7333299992622229 0.7623812066361844 O
atom_frac 0.0666699993149166 0.9333299986298332 0.7623812066361844 O
atom_frac 0.8666700005796955 0.1333300011593914 0.7623812066361844 O
atom_frac 0.4666699993149167 0.9333299986298332 0.7623812066361844 O
atom_frac 0.4666700002635008 0.3333300005270020 0.7623812066361844 O
atom_frac 0.6666699996311113 0.7333299992622229 0.7623812066361844 O
atom_frac 0.8666699996311112 0.7333299992622229 0.7623812066361844 O
atom_frac 0.6666700002635008 0.3333300005270020 0.7623812066361844 O
atom_frac 0.2666700002635011 0.3333300005270020 0.7623812066361844 O
atom_frac 0.0666699999473060 0.5333299998946123 0.7623812066361844 O
atom_frac 0.4666700005796955 0.1333300011593914 0.7623812066361844 O
atom_frac 0.2666699999473061 0.5333299998946123 0.7623812066361844 O
atom_frac 0.8666700002635008 0.3333300005270020 0.7623812066361844 O
atom_frac 0.4666699996311113 0.7333299992622229 0.7623812066361844 O
atom_frac 0.2666699993149166 0.9333299986298332 0.7623812066361844 O
atom_frac 0.8666699993149167 0.9333299986298332 0.7623812066361844 O
atom_frac 0.9333300000526936 0.4666700001053877 0.7863612066361844 Zn
atom_frac 0.1333300000526937 0.4666700001053877 0.7863612066361844 Zn
atom_frac 0.9333300006850836 0.0666700013701668 0.7863612066361844 Zn
atom_frac 0.5333299997364991 0.6666699994729982 0.7863612066361844 Zn
atom_frac 0.3333300003688885 0.2666700007377773 0.7863612066361844 Zn
atom_frac 0.1333299997364990 0.6666699994729982 0.7863612066361844 Zn
atom_frac 0.1333300003688885 0.2666700007377773 0.7863612066361844 Zn
atom_frac 0.5333300000526938 0.4666700001053877 0.7863612066361844 Zn
atom_frac 0.9333299997364990 0.6666699994729982 0.7863612066361844 Zn
atom_frac 0.7333300006850842 0.0666700013701668 0.7863612066361844 Zn
atom_frac 0.3333300006850832 0.0666700013701668 0.7863612066361844 Zn
atom_frac 0.9333300003688884 0.2666700007377773 0.7863612066361844 Zn
atom_frac 0.7333300000526937 0.4666700001053877 0.7863612066361844 Zn
atom_frac 0.7333299994203051 0.8666699988406087 0.7863612066361844 Zn
atom_frac 0.5333300003688889 0.2666700007377773 0.7863612066361844 Zn
atom_frac 0.3333299997364990 0.6666699994729982 0.7863612066361844 Zn
atom_frac 0.5333300006850837 0.0666700013701668 0.7863612066361844 Zn
atom_frac 0.9333299994203043 0.8666699988406087 0.7863612066361844 Zn
atom_frac 0.3767540967599196 0.3921001004811779 0.2136387933638156 Pd
atom_frac 0.3767540967599196 0.3921001004811779 0.2708407046703454 Pd
atom_frac 0.4562900485670621 0.3125641490512682 0.2708407046703454 Pd
atom_frac 0.4562900481898297 0.5511720033409973 0.2708407046703454 Pd
atom_frac 0.6153619518041142 0.3921001004811779 0.2136387933638156 Pd
atom_frac 0.6153619518041142 0.3921001004811779 0.2708407046703454 Pd
atom_frac 0.5358259999969718 0.4716360519110875 0.2136387933638156 Pd
atom_frac 0.6153619514268815 0.6307079547709068 0.2136387933638156 Pd
atom_frac 0.6153619514268815 0.6307079547709068 0.2708407046703454 Pd
atom_frac 0.6948979032340241 0.5511720033409973 0.2708407046703454 Pd
