#=======================================================
# FHI-aims file: /nfshome/store03/users/c.c1809139/DJW_EBMC/Pd_nps/ZnO_Zn_face/geometry.in
# Created using the Atomic Simulation Environment (ASE)
# Mon Nov 27 10:00:16 2023
#=======================================================
lattice_vector 16.3029000000000011 0.0000000000000000 0.0000000000000000 
lattice_vector -8.1514500000000005 14.1187255999999994 0.0000000000000000 
lattice_vector 0.0000000000000000 0.0000000000000000 36.2229000000000028 
atom -6.5210784854999986 13.1774301449029902 10.7523162145000022 O
atom 1.6303715145000000 4.7061948116885945 10.7523162145000022 O
atom 0.0000815145000009 7.5299399227600592 10.7523162145000022 O
atom -3.2604984854999977 13.1774301449029902 10.7523162145000022 O
atom 6.5212415144999989 1.8824497006171295 10.7523162145000022 O
atom 4.8909515144999993 4.7061948116885945 10.7523162145000022 O
atom 3.2606615145000011 7.5299399227600592 10.7523162145000022 O
atom 1.6303715145000011 10.3536850338315265 10.7523162145000022 O
atom 0.0000815145000020 13.1774301449029902 10.7523162145000022 O
atom 9.7818215145000007 1.8824497006171295 10.7523162145000022 O
atom 6.5212415145000016 7.5299399227600592 10.7523162145000022 O
atom 4.8909515145000011 10.3536850338315265 10.7523162145000022 O
atom 3.2606615145000033 13.1774301449029902 10.7523162145000022 O
atom 13.0424015145000016 1.8824497006171295 10.7523162145000022 O
atom 11.4121115145000029 4.7061948116885945 10.7523162145000022 O
atom 9.7818215145000043 7.5299399227600592 10.7523162145000022 O
atom 8.1515315145000038 10.3536850338315265 10.7523162145000022 O
atom 6.5212415145000033 13.1774301449029902 10.7523162145000022 O
atom 4.8907884855000008 6.5887856772399394 11.3811413565000024 Zn
atom 3.2604984855000008 3.7650405661684756 11.3811413565000024 Zn
atom 3.2604984855000021 9.4125307883114058 11.3811413565000024 Zn
atom -3.2606615144999984 9.4125307883114058 11.3811413565000024 Zn
atom 1.6302084855000019 12.2362758993828713 11.3811413565000024 Zn
atom 1.6302084855000014 6.5887856772399394 11.3811413565000024 Zn
atom 11.4119484855000017 0.9412954550970100 11.3811413565000024 Zn
atom 1.6302084854999994 0.9412954550970100 11.3811413565000024 Zn
atom 9.7816584855000031 3.7650405661684756 11.3811413565000024 Zn
atom -0.0000815144999981 9.4125307883114058 11.3811413565000024 Zn
atom 8.1513684855000026 6.5887856772399394 11.3811413565000024 Zn
atom -4.8909515144999993 12.2362758993828713 11.3811413565000024 Zn
atom 6.5210784855000021 9.4125307883114058 11.3811413565000024 Zn
atom -1.6303715144999982 12.2362758993828713 11.3811413565000024 Zn
atom 4.8907884855000026 12.2362758993828713 11.3811413565000024 Zn
atom -1.6303715144999991 6.5887856772399394 11.3811413565000024 Zn
atom 14.6725284855000009 0.9412954550970100 11.3811413565000024 Zn
atom 8.1513684855000008 0.9412954550970100 11.3811413565000024 Zn
atom 13.0422384855000022 3.7650405661684756 11.3811413565000024 Zn
atom 4.8907884854999990 0.9412954550970100 11.3811413565000024 Zn
atom 11.4119484855000017 6.5887856772399394 11.3811413565000024 Zn
atom 6.5210784854999995 3.7650405661684756 11.3811413565000024 Zn
atom 9.7816584855000031 9.4125307883114058 11.3811413565000024 Zn
atom -0.0000815145000001 3.7650405661684756 11.3811413565000024 Zn
atom 8.1513684855000026 12.2362758993828713 11.3811413565000024 Zn
atom 9.7816584855000031 3.7650405661684756 13.3746062145000018 O
atom 1.6302084855000014 6.5887856772399394 13.3746062145000018 O
atom 6.5210784854999995 3.7650405661684756 13.3746062145000018 O
atom 8.1513684855000026 6.5887856772399394 13.3746062145000018 O
atom -3.2606615144999984 9.4125307883114058 13.3746062145000018 O
atom 4.8907884854999990 0.9412954550970100 13.3746062145000018 O
atom 6.5210784855000021 9.4125307883114058 13.3746062145000018 O
atom 4.8907884855000008 6.5887856772399394 13.3746062145000018 O
atom -0.0000815144999981 9.4125307883114058 13.3746062145000018 O
atom 4.8907884855000026 12.2362758993828713 13.3746062145000018 O
atom -1.6303715144999991 6.5887856772399394 13.3746062145000018 O
atom 3.2604984855000021 9.4125307883114058 13.3746062145000018 O
atom 14.6725284855000009 0.9412954550970100 13.3746062145000018 O
atom 1.6302084854999994 0.9412954550970100 13.3746062145000018 O
atom -1.6303715144999982 12.2362758993828713 13.3746062145000018 O
atom 13.0422384855000022 3.7650405661684756 13.3746062145000018 O
atom 1.6302084855000019 12.2362758993828713 13.3746062145000018 O
atom 3.2604984855000008 3.7650405661684756 13.3746062145000018 O
atom 11.4119484855000017 6.5887856772399394 13.3746062145000018 O
atom -4.8909515144999993 12.2362758993828713 13.3746062145000018 O
atom 11.4119484855000017 0.9412954550970100 13.3746062145000018 O
atom 9.7816584855000031 9.4125307883114058 13.3746062145000018 O
atom 8.1513684855000008 0.9412954550970100 13.3746062145000018 O
atom -0.0000815145000001 3.7650405661684756 13.3746062145000018 O
atom 8.1513684855000026 12.2362758993828713 13.3746062145000018 O
atom 4.8909515145000011 10.3536850338315265 14.0034313565000001 Zn
atom 6.5212415144999989 1.8824497006171295 14.0034313565000001 Zn
atom -6.5210784854999986 13.1774301449029902 14.0034313565000001 Zn
atom 0.0000815145000020 13.1774301449029902 14.0034313565000001 Zn
atom 3.2606615145000033 13.1774301449029902 14.0034313565000001 Zn
atom -4.8907884854999999 10.3536850338315265 14.0034313565000001 Zn
atom -1.6302084854999990 10.3536850338315265 14.0034313565000001 Zn
atom 4.8909515144999993 4.7061948116885945 14.0034313565000001 Zn
atom 13.0424015145000016 1.8824497006171295 14.0034313565000001 Zn
atom 9.7818215145000007 1.8824497006171295 14.0034313565000001 Zn
atom 1.6303715145000000 4.7061948116885945 14.0034313565000001 Zn
atom -1.6302084855000003 4.7061948116885945 14.0034313565000001 Zn
atom 11.4121115145000029 4.7061948116885945 14.0034313565000001 Zn
atom 0.0000815144999992 1.8824497006171295 14.0034313565000001 Zn
atom 8.1515315145000020 4.7061948116885945 14.0034313565000001 Zn
atom 3.2606615145000011 7.5299399227600592 14.0034313565000001 Zn
atom 9.7818215145000043 7.5299399227600592 14.0034313565000001 Zn
atom -3.2604984854999977 13.1774301449029902 14.0034313565000001 Zn
atom 3.2606615144999997 1.8824497006171295 14.0034313565000001 Zn
atom 6.5212415145000016 7.5299399227600592 14.0034313565000001 Zn
atom 8.1515315145000038 10.3536850338315265 14.0034313565000001 Zn
atom 0.0000815145000009 7.5299399227600592 14.0034313565000001 Zn
atom 1.6303715145000011 10.3536850338315265 14.0034313565000001 Zn
atom -3.2604984854999990 7.5299399227600592 14.0034313565000001 Zn
atom 6.5212415145000033 13.1774301449029902 14.0034313565000001 Zn
atom 3.2606615145000011 7.5299399227600592 15.9968962145000013 O
    constrain_relaxation .true.
atom 1.6303715145000000 4.7061948116885945 15.9968962145000013 O
    constrain_relaxation .true.
atom -4.8907884854999999 10.3536850338315265 15.9968962145000013 O
    constrain_relaxation .true.
atom 6.5212415144999989 1.8824497006171295 15.9968962145000013 O
    constrain_relaxation .true.
atom 13.0424015145000016 1.8824497006171295 15.9968962145000013 O
    constrain_relaxation .true.
atom 8.1515315145000020 4.7061948116885945 15.9968962145000013 O
    constrain_relaxation .true.
atom -1.6302084854999990 10.3536850338315265 15.9968962145000013 O
    constrain_relaxation .true.
atom 1.6303715145000011 10.3536850338315265 15.9968962145000013 O
    constrain_relaxation .true.
atom 3.2606615144999997 1.8824497006171295 15.9968962145000013 O
    constrain_relaxation .true.
atom 11.4121115145000029 4.7061948116885945 15.9968962145000013 O
    constrain_relaxation .true.
atom -6.5210784854999986 13.1774301449029902 15.9968962145000013 O
    constrain_relaxation .true.
atom 6.5212415145000016 7.5299399227600592 15.9968962145000013 O
    constrain_relaxation .true.
atom -1.6302084855000003 4.7061948116885945 15.9968962145000013 O
    constrain_relaxation .true.
atom 4.8909515144999993 4.7061948116885945 15.9968962145000013 O
    constrain_relaxation .true.
atom 9.7818215145000043 7.5299399227600592 15.9968962145000013 O
    constrain_relaxation .true.
atom 0.0000815145000020 13.1774301449029902 15.9968962145000013 O
    constrain_relaxation .true.
atom 0.0000815145000009 7.5299399227600592 15.9968962145000013 O
    constrain_relaxation .true.
atom 4.8909515145000011 10.3536850338315265 15.9968962145000013 O
    constrain_relaxation .true.
atom -3.2604984854999977 13.1774301449029902 15.9968962145000013 O
    constrain_relaxation .true.
atom 8.1515315145000038 10.3536850338315265 15.9968962145000013 O
    constrain_relaxation .true.
atom -3.2604984854999990 7.5299399227600592 15.9968962145000013 O
    constrain_relaxation .true.
atom 0.0000815144999992 1.8824497006171295 15.9968962145000013 O
    constrain_relaxation .true.
atom 9.7818215145000007 1.8824497006171295 15.9968962145000013 O
    constrain_relaxation .true.
atom 3.2606615145000033 13.1774301449029902 15.9968962145000013 O
    constrain_relaxation .true.
atom 6.5212415145000033 13.1774301449029902 15.9968962145000013 O
    constrain_relaxation .true.
atom 14.6725284855000009 0.9412954550970100 16.6257213565000015 Zn
    constrain_relaxation .true.
atom 1.6302084854999994 0.9412954550970100 16.6257213565000015 Zn
    constrain_relaxation .true.
atom 1.6302084855000019 12.2362758993828713 16.6257213565000015 Zn
    constrain_relaxation .true.
atom 8.1513684855000026 6.5887856772399394 16.6257213565000015 Zn
    constrain_relaxation .true.
atom -0.0000815144999981 9.4125307883114058 16.6257213565000015 Zn
    constrain_relaxation .true.
atom -3.2606615144999984 9.4125307883114058 16.6257213565000015 Zn
    constrain_relaxation .true.
atom 13.0422384855000022 3.7650405661684756 16.6257213565000015 Zn
    constrain_relaxation .true.
atom 4.8907884855000008 6.5887856772399394 16.6257213565000015 Zn
    constrain_relaxation .true.
atom 8.1513684855000008 0.9412954550970100 16.6257213565000015 Zn
    constrain_relaxation .true.
atom -1.6303715144999991 6.5887856772399394 16.6257213565000015 Zn
    constrain_relaxation .true.
atom 6.5210784855000021 9.4125307883114058 16.6257213565000015 Zn
    constrain_relaxation .true.
atom 11.4119484855000017 0.9412954550970100 16.6257213565000015 Zn
    constrain_relaxation .true.
atom 11.4119484855000017 6.5887856772399394 16.6257213565000015 Zn
    constrain_relaxation .true.
atom 1.6302084855000014 6.5887856772399394 16.6257213565000015 Zn
    constrain_relaxation .true.
atom -4.8909515144999993 12.2362758993828713 16.6257213565000015 Zn
    constrain_relaxation .true.
atom 3.2604984855000008 3.7650405661684756 16.6257213565000015 Zn
    constrain_relaxation .true.
atom 3.2604984855000021 9.4125307883114058 16.6257213565000015 Zn
    constrain_relaxation .true.
atom 4.8907884855000026 12.2362758993828713 16.6257213565000015 Zn
    constrain_relaxation .true.
atom 9.7816584855000031 9.4125307883114058 16.6257213565000015 Zn
    constrain_relaxation .true.
atom -1.6303715144999982 12.2362758993828713 16.6257213565000015 Zn
    constrain_relaxation .true.
atom 9.7816584855000031 3.7650405661684756 16.6257213565000015 Zn
    constrain_relaxation .true.
atom 6.5210784854999995 3.7650405661684756 16.6257213565000015 Zn
    constrain_relaxation .true.
atom 4.8907884854999990 0.9412954550970100 16.6257213565000015 Zn
    constrain_relaxation .true.
atom -0.0000815145000001 3.7650405661684756 16.6257213565000015 Zn
    constrain_relaxation .true.
atom 8.1513684855000026 12.2362758993828713 16.6257213565000015 Zn
    constrain_relaxation .true.
atom 11.4119484855000017 0.9412954550970100 18.6191862144999973 O
atom 6.5210784854999995 3.7650405661684756 18.6191862144999973 O
atom 3.2604984855000021 9.4125307883114058 18.6191862144999973 O
atom 13.0422384855000022 3.7650405661684756 18.6191862144999973 O
atom 6.5210784855000021 9.4125307883114058 18.6191862144999973 O
atom -0.0000815144999981 9.4125307883114058 18.6191862144999973 O
atom 4.8907884854999990 0.9412954550970100 18.6191862144999973 O
atom 1.6302084855000014 6.5887856772399394 18.6191862144999973 O
atom 3.2604984855000008 3.7650405661684756 18.6191862144999973 O
atom 9.7816584855000031 3.7650405661684756 18.6191862144999973 O
atom 11.4119484855000017 6.5887856772399394 18.6191862144999973 O
atom 8.1513684855000008 0.9412954550970100 18.6191862144999973 O
atom 4.8907884855000026 12.2362758993828713 18.6191862144999973 O
atom -3.2606615144999984 9.4125307883114058 18.6191862144999973 O
atom 1.6302084855000019 12.2362758993828713 18.6191862144999973 O
atom 4.8907884855000008 6.5887856772399394 18.6191862144999973 O
atom 1.6302084854999994 0.9412954550970100 18.6191862144999973 O
atom 9.7816584855000031 9.4125307883114058 18.6191862144999973 O
atom -0.0000815145000001 3.7650405661684756 18.6191862144999973 O
atom 8.1513684855000026 6.5887856772399394 18.6191862144999973 O
atom 14.6725284855000009 0.9412954550970100 18.6191862144999973 O
atom -1.6303715144999982 12.2362758993828713 18.6191862144999973 O
atom -4.8909515144999993 12.2362758993828713 18.6191862144999973 O
atom -1.6303715144999991 6.5887856772399394 18.6191862144999973 O
atom 8.1513684855000026 12.2362758993828713 18.6191862144999973 O
atom 11.4121115145000029 4.7061948116885945 19.2480113565000011 Zn
atom 8.1515315145000020 4.7061948116885945 19.2480113565000011 Zn
atom 0.0000815145000020 13.1774301449029902 19.2480113565000011 Zn
atom -1.6302084854999990 10.3536850338315265 19.2480113565000011 Zn
atom 0.0000815145000009 7.5299399227600592 19.2480113565000011 Zn
atom -1.6302084855000003 4.7061948116885945 19.2480113565000011 Zn
atom 3.2606615145000033 13.1774301449029902 19.2480113565000011 Zn
atom 4.8909515144999993 4.7061948116885945 19.2480113565000011 Zn
atom 9.7818215145000043 7.5299399227600592 19.2480113565000011 Zn
atom -6.5210784854999986 13.1774301449029902 19.2480113565000011 Zn
atom -4.8907884854999999 10.3536850338315265 19.2480113565000011 Zn
atom 6.5212415145000016 7.5299399227600592 19.2480113565000011 Zn
atom 1.6303715145000011 10.3536850338315265 19.2480113565000011 Zn
atom 9.7818215145000007 1.8824497006171295 19.2480113565000011 Zn
atom 0.0000815144999992 1.8824497006171295 19.2480113565000011 Zn
atom 13.0424015145000016 1.8824497006171295 19.2480113565000011 Zn
atom 8.1515315145000038 10.3536850338315265 19.2480113565000011 Zn
atom 6.5212415144999989 1.8824497006171295 19.2480113565000011 Zn
atom 3.2606615144999997 1.8824497006171295 19.2480113565000011 Zn
atom -3.2604984854999990 7.5299399227600592 19.2480113565000011 Zn
atom -3.2604984854999977 13.1774301449029902 19.2480113565000011 Zn
atom 4.8909515145000011 10.3536850338315265 19.2480113565000011 Zn
atom 3.2606615145000011 7.5299399227600592 19.2480113565000011 Zn
atom 1.6303715145000000 4.7061948116885945 19.2480113565000011 Zn
atom 6.5212415145000033 13.1774301449029902 19.2480113565000011 Zn
atom -1.6302084854999990 10.3536850338315265 21.2414762145000040 O
atom 3.2606615145000033 13.1774301449029902 21.2414762145000040 O
atom 9.7818215145000007 1.8824497006171295 21.2414762145000040 O
atom 6.5212415145000016 7.5299399227600592 21.2414762145000040 O
atom 0.0000815144999992 1.8824497006171295 21.2414762145000040 O
atom -1.6302084855000003 4.7061948116885945 21.2414762145000040 O
atom 9.7818215145000043 7.5299399227600592 21.2414762145000040 O
atom 3.2606615145000011 7.5299399227600592 21.2414762145000040 O
atom 3.2606615144999997 1.8824497006171295 21.2414762145000040 O
atom -4.8907884854999999 10.3536850338315265 21.2414762145000040 O
atom -6.5210784854999986 13.1774301449029902 21.2414762145000040 O
atom 13.0424015145000016 1.8824497006171295 21.2414762145000040 O
atom 0.0000815145000020 13.1774301449029902 21.2414762145000040 O
atom 4.8909515144999993 4.7061948116885945 21.2414762145000040 O
atom 4.8909515145000011 10.3536850338315265 21.2414762145000040 O
atom 8.1515315145000038 10.3536850338315265 21.2414762145000040 O
atom 8.1515315145000020 4.7061948116885945 21.2414762145000040 O
atom 1.6303715145000000 4.7061948116885945 21.2414762145000040 O
atom -3.2604984854999990 7.5299399227600592 21.2414762145000040 O
atom 6.5212415144999989 1.8824497006171295 21.2414762145000040 O
atom 0.0000815145000009 7.5299399227600592 21.2414762145000040 O
atom 11.4121115145000029 4.7061948116885945 21.2414762145000040 O
atom 1.6303715145000011 10.3536850338315265 21.2414762145000040 O
atom -3.2604984854999977 13.1774301449029902 21.2414762145000040 O
atom 6.5212415145000033 13.1774301449029902 21.2414762145000040 O
atom 11.4119484855000017 6.5887856772399394 21.8703013565000006 Zn
atom -1.6303715144999991 6.5887856772399394 21.8703013565000006 Zn
atom 14.6725284855000009 0.9412954550970100 21.8703013565000006 Zn
atom 3.2604984855000021 9.4125307883114058 21.8703013565000006 Zn
atom 3.2604984855000008 3.7650405661684756 21.8703013565000006 Zn
atom -3.2606615144999984 9.4125307883114058 21.8703013565000006 Zn
atom -0.0000815145000001 3.7650405661684756 21.8703013565000006 Zn
atom 4.8907884855000008 6.5887856772399394 21.8703013565000006 Zn
atom 9.7816584855000031 9.4125307883114058 21.8703013565000006 Zn
atom 11.4119484855000017 0.9412954550970100 21.8703013565000006 Zn
atom 4.8907884854999990 0.9412954550970100 21.8703013565000006 Zn
atom 13.0422384855000022 3.7650405661684756 21.8703013565000006 Zn
atom 8.1513684855000026 6.5887856772399394 21.8703013565000006 Zn
atom 4.8907884855000026 12.2362758993828713 21.8703013565000006 Zn
atom 6.5210784854999995 3.7650405661684756 21.8703013565000006 Zn
atom -0.0000815144999981 9.4125307883114058 21.8703013565000006 Zn
atom 8.1513684855000008 0.9412954550970100 21.8703013565000006 Zn
atom 8.1513684855000026 12.2362758993828713 21.8703013565000006 Zn
atom 2.9459999999999988 5.5359537487475148 23.9705837855000041 Pd
atom 2.9459999999999988 5.5359537487475148 25.4705837855000041 Pd
atom 4.8909999999999982 4.4130074751736927 25.4705837855000041 Pd
atom 2.9459999999999988 7.7818462958951589 25.4705837855000041 Pd
atom 6.8359999999999985 5.5359537487475148 23.9705837855000041 Pd
atom 6.8359999999999985 5.5359537487475148 25.4705837855000041 Pd
atom 4.8909999999999982 6.6589000223213368 23.9705837855000041 Pd
atom 4.8909999999999982 8.9047925694689809 23.9705837855000041 Pd
atom 4.8909999999999982 8.9047925694689809 25.4705837855000041 Pd
atom 6.8359999999999985 7.7818462958951589 25.4705837855000041 Pd
