#=======================================================
# FHI-aims file: ./geometry.in
# Created using the Atomic Simulation Environment (ASE)
# Thu Feb 29 01:43:01 2024
#=======================================================
lattice_vector 13.0879999999999992 0.0000000000000000 0.0000000000000000 
lattice_vector 0.0000000000000000 15.8217299999999987 0.0000000000000000 
lattice_vector 0.0000000000000000 0.0000000000000000 31.1700000000000017 
atom_frac 0.0000000000000000 0.3324366666666667 0.3030300000000000 Zn
    constrain_relaxation .true.
atom_frac 0.0000000000000000 0.1283966666666667 0.3030300000000000 O
    constrain_relaxation .true.
atom_frac 0.1249900000000000 0.2950633333333333 0.3333300000000000 O
    constrain_relaxation .true.
atom_frac 0.1250000000000000 0.1657700000000000 0.3333300000000000 Zn
    constrain_relaxation .true.
atom_frac 0.1250000000000000 0.3324366666666667 0.3939400000000000 Zn
    constrain_relaxation .true.
atom_frac 0.1250000000000000 0.1283966666666667 0.3939400000000000 O
    constrain_relaxation .true.
atom_frac 0.2499900000000000 0.2950633333333333 0.4242400000000000 O
    constrain_relaxation .true.
atom_frac 0.0000000000000000 0.1657700000000000 0.4242400000000000 Zn
    constrain_relaxation .true.
atom_frac 0.0000000000000000 0.3324366666666667 0.4848499999999999 Zn
    constrain_relaxation .true.
atom_frac 0.0000000000000000 0.1283966666666667 0.4848499999999999 O
    constrain_relaxation .true.
atom_frac 0.1249900000000000 0.2950633333333333 0.5151500000000000 O
    constrain_relaxation .true.
atom_frac 0.1250000000000000 0.1657700000000000 0.5151500000000000 Zn
    constrain_relaxation .true.
atom_frac 0.1250000000000000 0.3324366666666667 0.5757600000000000 Zn
    constrain_relaxation .true.
atom_frac 0.1250000000000000 0.1283966666666667 0.5757600000000000 O
    constrain_relaxation .true.
atom_frac 0.2503463460792938 0.2945581607473852 0.6065892336406402 O
atom_frac 0.0000188274354342 0.1697704458852898 0.6042860228437351 Zn
atom_frac 0.0022224562081852 0.3378976871853768 0.6696842757631714 Zn
atom_frac 0.0002069859164036 0.1287561542774547 0.6666377444555477 O
atom_frac 0.1277294601885204 0.2963133424621691 0.6958206726309311 O
atom_frac 0.1251117354242043 0.1804008458555311 0.6859765253987675 Zn
atom_frac 0.0000000000000000 0.6657700000000001 0.3030300000000000 Zn
    constrain_relaxation .true.
atom_frac 0.0000000000000000 0.4617300000000000 0.3030300000000000 O
    constrain_relaxation .true.
atom_frac 0.1249900000000000 0.6283966666666667 0.3333300000000000 O
    constrain_relaxation .true.
atom_frac 0.1250000000000000 0.4991033333333333 0.3333300000000000 Zn
    constrain_relaxation .true.
atom_frac 0.1250000000000000 0.6657700000000001 0.3939400000000000 Zn
    constrain_relaxation .true.
atom_frac 0.1250000000000000 0.4617300000000000 0.3939400000000000 O
    constrain_relaxation .true.
atom_frac 0.2499900000000000 0.6283966666666667 0.4242400000000000 O
    constrain_relaxation .true.
atom_frac 0.0000000000000000 0.4991033333333333 0.4242400000000000 Zn
    constrain_relaxation .true.
atom_frac 0.0000000000000000 0.6657700000000001 0.4848499999999999 Zn
    constrain_relaxation .true.
atom_frac 0.0000000000000000 0.4617300000000000 0.4848499999999999 O
    constrain_relaxation .true.
atom_frac 0.1249900000000000 0.6283966666666667 0.5151500000000000 O
    constrain_relaxation .true.
atom_frac 0.1250000000000000 0.4991033333333333 0.5151500000000000 Zn
    constrain_relaxation .true.
atom_frac 0.1250000000000000 0.6657700000000001 0.5757600000000000 Zn
    constrain_relaxation .true.
atom_frac 0.1250000000000000 0.4617300000000000 0.5757600000000000 O
    constrain_relaxation .true.
atom_frac 0.2504374238542523 0.6281961681722624 0.6054363487900379 O
atom_frac 0.0013475112844084 0.5016816184533145 0.6060233410911505 Zn
atom_frac 0.0020280776634563 0.6648571466754846 0.6695286962646699 Zn
atom_frac 0.0035785212478692 0.4639562830890988 0.6684678816794336 O
atom_frac 0.1303040789278644 0.6301834404900507 0.6959490243782933 O
atom_frac 0.1300444000695630 0.5075649917648726 0.6998996058897691 Zn
atom_frac 0.0000000000000000 0.9991033333333335 0.3030300000000000 Zn
    constrain_relaxation .true.
atom_frac 0.0000000000000000 0.7950633333333335 0.3030300000000000 O
    constrain_relaxation .true.
atom_frac 0.1249900000000000 0.9617300000000001 0.3333300000000000 O
    constrain_relaxation .true.
atom_frac 0.1250000000000000 0.8324366666666667 0.3333300000000000 Zn
    constrain_relaxation .true.
atom_frac 0.1250000000000000 0.9991033333333335 0.3939400000000000 Zn
    constrain_relaxation .true.
atom_frac 0.1250000000000000 0.7950633333333335 0.3939400000000000 O
    constrain_relaxation .true.
atom_frac 0.2499900000000000 0.9617300000000001 0.4242400000000000 O
    constrain_relaxation .true.
atom_frac 0.0000000000000000 0.8324366666666667 0.4242400000000000 Zn
    constrain_relaxation .true.
atom_frac 0.0000000000000000 0.9991033333333335 0.4848499999999999 Zn
    constrain_relaxation .true.
atom_frac 0.0000000000000000 0.7950633333333335 0.4848499999999999 O
    constrain_relaxation .true.
atom_frac 0.1249900000000000 0.9617300000000001 0.5151500000000000 O
    constrain_relaxation .true.
atom_frac 0.1250000000000000 0.8324366666666667 0.5151500000000000 Zn
    constrain_relaxation .true.
atom_frac 0.1250000000000000 0.9991033333333335 0.5757600000000000 Zn
    constrain_relaxation .true.
atom_frac 0.1250000000000000 0.7950633333333335 0.5757600000000000 O
    constrain_relaxation .true.
atom_frac 0.2500502186098286 0.9610993694181997 0.6052723945281511 O
atom_frac -0.0000643442695093 0.8351385405824258 0.6044812589935807 Zn
atom_frac -0.0001321490076445 1.0013341510892333 0.6682720185769584 Zn
atom_frac 0.0005675614718235 0.7927466616325174 0.6664503661316122 O
atom_frac 0.1249564484162714 0.9612658925278882 0.6928500018260618 O
atom_frac 0.1244500124739970 0.8451944527946390 0.6857082217023158 Zn
atom_frac 0.2500000000000000 0.3324366666666667 0.3030300000000000 Zn
    constrain_relaxation .true.
atom_frac 0.2500000000000000 0.1283966666666667 0.3030300000000000 O
    constrain_relaxation .true.
atom_frac 0.3749900000000000 0.2950633333333333 0.3333300000000000 O
    constrain_relaxation .true.
atom_frac 0.3750000000000000 0.1657700000000000 0.3333300000000000 Zn
    constrain_relaxation .true.
atom_frac 0.3750000000000000 0.3324366666666667 0.3939400000000000 Zn
    constrain_relaxation .true.
atom_frac 0.3750000000000000 0.1283966666666667 0.3939400000000000 O
    constrain_relaxation .true.
atom_frac 0.4999900000000000 0.2950633333333333 0.4242400000000000 O
    constrain_relaxation .true.
atom_frac 0.2500000000000000 0.1657700000000000 0.4242400000000000 Zn
    constrain_relaxation .true.
atom_frac 0.2500000000000000 0.3324366666666667 0.4848499999999999 Zn
    constrain_relaxation .true.
atom_frac 0.2500000000000000 0.1283966666666667 0.4848499999999999 O
    constrain_relaxation .true.
atom_frac 0.3749900000000000 0.2950633333333333 0.5151500000000000 O
    constrain_relaxation .true.
atom_frac 0.3750000000000000 0.1657700000000000 0.5151500000000000 Zn
    constrain_relaxation .true.
atom_frac 0.3750000000000000 0.3324366666666667 0.5757600000000000 Zn
    constrain_relaxation .true.
atom_frac 0.3750000000000000 0.1283966666666667 0.5757600000000000 O
    constrain_relaxation .true.
atom_frac 0.4996536517106001 0.2945582216916757 0.6065893748266262 O
atom_frac 0.2500212089344263 0.1696570245396739 0.6043699026825364 Zn
atom_frac 0.2515252553216628 0.3392364923330971 0.6689756431853405 Zn
atom_frac 0.2504663129568822 0.1287775194481988 0.6666779696539095 O
atom_frac 0.3750025098255471 0.2962237880576604 0.6972172025892014 O
atom_frac 0.3750023479031223 0.1805429125892493 0.6863107846584078 Zn
atom_frac 0.2500000000000000 0.6657700000000001 0.3030300000000000 Zn
    constrain_relaxation .true.
atom_frac 0.2500000000000000 0.4617300000000000 0.3030300000000000 O
    constrain_relaxation .true.
atom_frac 0.3749900000000000 0.6283966666666667 0.3333300000000000 O
    constrain_relaxation .true.
atom_frac 0.3750000000000000 0.4991033333333333 0.3333300000000000 Zn
    constrain_relaxation .true.
atom_frac 0.3750000000000000 0.6657700000000001 0.3939400000000000 Zn
    constrain_relaxation .true.
atom_frac 0.3750000000000000 0.4617300000000000 0.3939400000000000 O
    constrain_relaxation .true.
atom_frac 0.4999900000000000 0.6283966666666667 0.4242400000000000 O
    constrain_relaxation .true.
atom_frac 0.2500000000000000 0.4991033333333333 0.4242400000000000 Zn
    constrain_relaxation .true.
atom_frac 0.2500000000000000 0.6657700000000001 0.4848499999999999 Zn
    constrain_relaxation .true.
atom_frac 0.2500000000000000 0.4617300000000000 0.4848499999999999 O
    constrain_relaxation .true.
atom_frac 0.3749900000000000 0.6283966666666667 0.5151500000000000 O
    constrain_relaxation .true.
atom_frac 0.3750000000000000 0.4991033333333333 0.5151500000000000 Zn
    constrain_relaxation .true.
atom_frac 0.3750000000000000 0.6657700000000001 0.5757600000000000 Zn
    constrain_relaxation .true.
atom_frac 0.3750000000000000 0.4617300000000000 0.5757600000000000 O
    constrain_relaxation .true.
atom_frac 0.4995621986948938 0.6281960834002361 0.6054366217210821 O
atom_frac 0.2494485091754655 0.5017644307437944 0.6050515274648494 Zn
atom_frac 0.2505735974674998 0.6685260331203652 0.6664017103889645 Zn
atom_frac 0.2497719515617753 0.4641229157282961 0.6656480390774487 O
atom_frac 0.3750010314058460 0.6352978400420192 0.6966961569800970 O
atom_frac 0.3750024200809218 0.5135907312509326 0.6911560546837334 Zn
atom_frac 0.2500000000000000 0.9991033333333335 0.3030300000000000 Zn
    constrain_relaxation .true.
atom_frac 0.2500000000000000 0.7950633333333335 0.3030300000000000 O
    constrain_relaxation .true.
atom_frac 0.3749900000000000 0.9617300000000001 0.3333300000000000 O
    constrain_relaxation .true.
atom_frac 0.3750000000000000 0.8324366666666667 0.3333300000000000 Zn
    constrain_relaxation .true.
atom_frac 0.3750000000000000 0.9991033333333335 0.3939400000000000 Zn
    constrain_relaxation .true.
atom_frac 0.3750000000000000 0.7950633333333335 0.3939400000000000 O
    constrain_relaxation .true.
atom_frac 0.4999900000000000 0.9617300000000001 0.4242400000000000 O
    constrain_relaxation .true.
atom_frac 0.2500000000000000 0.8324366666666667 0.4242400000000000 Zn
    constrain_relaxation .true.
atom_frac 0.2500000000000000 0.9991033333333335 0.4848499999999999 Zn
    constrain_relaxation .true.
atom_frac 0.2500000000000000 0.7950633333333335 0.4848499999999999 O
    constrain_relaxation .true.
atom_frac 0.3749900000000000 0.9617300000000001 0.5151500000000000 O
    constrain_relaxation .true.
atom_frac 0.3750000000000000 0.8324366666666667 0.5151500000000000 Zn
    constrain_relaxation .true.
atom_frac 0.3750000000000000 0.9991033333333335 0.5757600000000000 Zn
    constrain_relaxation .true.
atom_frac 0.3750000000000000 0.7950633333333335 0.5757600000000000 O
    constrain_relaxation .true.
atom_frac 0.4999496709558428 0.9610993328286451 0.6052724109443232 O
atom_frac 0.2499230092962375 0.8360367663415329 0.6040680950537529 Zn
atom_frac 0.2500117991928157 1.0016121439691619 0.6682650765984615 Zn
atom_frac 0.2499859415445517 0.7950955215805471 0.6659263269503418 O
atom_frac 0.3750015138409916 0.9613191651384436 0.6929545260550304 O
atom_frac 0.3750022052244225 0.8453078807334513 0.6856853022992749 Zn
atom_frac 0.5000000000000000 0.3324366666666667 0.3030300000000000 Zn
    constrain_relaxation .true.
atom_frac 0.5000000000000000 0.1283966666666667 0.3030300000000000 O
    constrain_relaxation .true.
atom_frac 0.6249900000000000 0.2950633333333333 0.3333300000000000 O
    constrain_relaxation .true.
atom_frac 0.6250000000000000 0.1657700000000000 0.3333300000000000 Zn
    constrain_relaxation .true.
atom_frac 0.6250000000000000 0.3324366666666667 0.3939400000000000 Zn
    constrain_relaxation .true.
atom_frac 0.6250000000000000 0.1283966666666667 0.3939400000000000 O
    constrain_relaxation .true.
atom_frac 0.7499899999999999 0.2950633333333333 0.4242400000000000 O
    constrain_relaxation .true.
atom_frac 0.5000000000000000 0.1657700000000000 0.4242400000000000 Zn
    constrain_relaxation .true.
atom_frac 0.5000000000000000 0.3324366666666667 0.4848499999999999 Zn
    constrain_relaxation .true.
atom_frac 0.5000000000000000 0.1283966666666667 0.4848499999999999 O
    constrain_relaxation .true.
atom_frac 0.6249900000000000 0.2950633333333333 0.5151500000000000 O
    constrain_relaxation .true.
atom_frac 0.6250000000000000 0.1657700000000000 0.5151500000000000 Zn
    constrain_relaxation .true.
atom_frac 0.6250000000000000 0.3324366666666667 0.5757600000000000 Zn
    constrain_relaxation .true.
atom_frac 0.6250000000000000 0.1283966666666667 0.5757600000000000 O
    constrain_relaxation .true.
atom_frac 0.7494379661936286 0.2947527017683876 0.6063354363612764 O
atom_frac 0.4999793968731768 0.1696569560714652 0.6043698935758082 Zn
atom_frac 0.4984737553818375 0.3392363491929793 0.6689757883100952 Zn
atom_frac 0.4995390941705854 0.1287775978382539 0.6666780018698268 O
atom_frac 0.6222750665350528 0.2963133554038394 0.6958211697588453 O
atom_frac 0.6248928227007694 0.1804007954279452 0.6859765704874666 Zn
atom_frac 0.5000000000000000 0.6657700000000001 0.3030300000000000 Zn
    constrain_relaxation .true.
atom_frac 0.5000000000000000 0.4617300000000000 0.3030300000000000 O
    constrain_relaxation .true.
atom_frac 0.6249900000000000 0.6283966666666667 0.3333300000000000 O
    constrain_relaxation .true.
atom_frac 0.6250000000000000 0.4991033333333333 0.3333300000000000 Zn
    constrain_relaxation .true.
atom_frac 0.6250000000000000 0.6657700000000001 0.3939400000000000 Zn
    constrain_relaxation .true.
atom_frac 0.6250000000000000 0.4617300000000000 0.3939400000000000 O
    constrain_relaxation .true.
atom_frac 0.7499899999999999 0.6283966666666667 0.4242400000000000 O
    constrain_relaxation .true.
atom_frac 0.5000000000000000 0.4991033333333333 0.4242400000000000 Zn
    constrain_relaxation .true.
atom_frac 0.5000000000000000 0.6657700000000001 0.4848499999999999 Zn
    constrain_relaxation .true.
atom_frac 0.5000000000000000 0.4617300000000000 0.4848499999999999 O
    constrain_relaxation .true.
atom_frac 0.6249900000000000 0.6283966666666667 0.5151500000000000 O
    constrain_relaxation .true.
atom_frac 0.6250000000000000 0.4991033333333333 0.5151500000000000 Zn
    constrain_relaxation .true.
atom_frac 0.6250000000000000 0.6657700000000001 0.5757600000000000 Zn
    constrain_relaxation .true.
atom_frac 0.6250000000000000 0.4617300000000000 0.5757600000000000 O
    constrain_relaxation .true.
atom_frac 0.7492802826249714 0.6276240992374207 0.6060526518112000 O
atom_frac 0.5005519155196935 0.5017642636780962 0.6050514301394584 Zn
atom_frac 0.4994265488467100 0.6685257390126375 0.6664021916011005 Zn
atom_frac 0.5002326879050285 0.4641231452560754 0.6656481126162129 O
atom_frac 0.6196976443960287 0.6301835848458117 0.6959499453541259 O
atom_frac 0.6199614556430936 0.5075643826643162 0.6999002255270992 Zn
atom_frac 0.5000000000000000 0.9991033333333335 0.3030300000000000 Zn
    constrain_relaxation .true.
atom_frac 0.5000000000000000 0.7950633333333335 0.3030300000000000 O
    constrain_relaxation .true.
atom_frac 0.6249900000000000 0.9617300000000001 0.3333300000000000 O
    constrain_relaxation .true.
atom_frac 0.6250000000000000 0.8324366666666667 0.3333300000000000 Zn
    constrain_relaxation .true.
atom_frac 0.6250000000000000 0.9991033333333335 0.3939400000000000 Zn
    constrain_relaxation .true.
atom_frac 0.6250000000000000 0.7950633333333335 0.3939400000000000 O
    constrain_relaxation .true.
atom_frac 0.7499899999999999 0.9617300000000001 0.4242400000000000 O
    constrain_relaxation .true.
atom_frac 0.5000000000000000 0.8324366666666667 0.4242400000000000 Zn
    constrain_relaxation .true.
atom_frac 0.5000000000000000 0.9991033333333335 0.4848499999999999 Zn
    constrain_relaxation .true.
atom_frac 0.5000000000000000 0.7950633333333335 0.4848499999999999 O
    constrain_relaxation .true.
atom_frac 0.6249900000000000 0.9617300000000001 0.5151500000000000 O
    constrain_relaxation .true.
atom_frac 0.6250000000000000 0.8324366666666667 0.5151500000000000 Zn
    constrain_relaxation .true.
atom_frac 0.6250000000000000 0.9991033333333335 0.5757600000000000 Zn
    constrain_relaxation .true.
atom_frac 0.6250000000000000 0.7950633333333335 0.5757600000000000 O
    constrain_relaxation .true.
atom_frac 0.7499620005831122 0.9605715723543025 0.6053016489209063 O
atom_frac 0.5000775996094823 0.8360367310712844 0.6040680913129330 Zn
atom_frac 0.4999904303014719 1.0016121734549686 0.6682650810633932 Zn
atom_frac 0.5000193310502012 0.7950953680560552 0.6659263952956666 O
atom_frac 0.6250464113137091 0.9612658801813088 0.6928499935930973 O
atom_frac 0.6255544352079534 0.8451943501107719 0.6857082379183581 Zn
atom_frac 0.7500000000000000 0.3324366666666667 0.3030300000000000 Zn
    constrain_relaxation .true.
atom_frac 0.7500000000000000 0.1283966666666667 0.3030300000000000 O
    constrain_relaxation .true.
atom_frac 0.8749900000000000 0.2950633333333333 0.3333300000000000 O
    constrain_relaxation .true.
atom_frac 0.8749999999999999 0.1657700000000000 0.3333300000000000 Zn
    constrain_relaxation .true.
atom_frac 0.8749999999999999 0.3324366666666667 0.3939400000000000 Zn
    constrain_relaxation .true.
atom_frac 0.8749999999999999 0.1283966666666667 0.3939400000000000 O
    constrain_relaxation .true.
atom_frac 0.9999899999999999 0.2950633333333333 0.4242400000000000 O
    constrain_relaxation .true.
atom_frac 0.7500000000000000 0.1657700000000000 0.4242400000000000 Zn
    constrain_relaxation .true.
atom_frac 0.7500000000000000 0.3324366666666667 0.4848499999999999 Zn
    constrain_relaxation .true.
atom_frac 0.7500000000000000 0.1283966666666667 0.4848499999999999 O
    constrain_relaxation .true.
atom_frac 0.8749900000000000 0.2950633333333333 0.5151500000000000 O
    constrain_relaxation .true.
atom_frac 0.8749999999999999 0.1657700000000000 0.5151500000000000 Zn
    constrain_relaxation .true.
atom_frac 0.8749999999999999 0.3324366666666667 0.5757600000000000 Zn
    constrain_relaxation .true.
atom_frac 0.8749999999999999 0.1283966666666667 0.5757600000000000 O
    constrain_relaxation .true.
atom_frac 1.0005617323204319 0.2947526534724472 0.6063353254844632 O
atom_frac 0.7499819263544122 0.1697703676392624 0.6042860144161502 Zn
atom_frac 0.7477779752788458 0.3378975131920631 0.6696844683971431 Zn
atom_frac 0.7497985903767649 0.1287562360943384 0.6666377699857433 O
atom_frac 0.8750017454551923 0.2974243191603320 0.6931053387942554 O
atom_frac 0.8750022503019417 0.1813570130965639 0.6855344984310734 Zn
atom_frac 0.7500000000000000 0.6657700000000001 0.3030300000000000 Zn
    constrain_relaxation .true.
atom_frac 0.7500000000000000 0.4617300000000000 0.3030300000000000 O
    constrain_relaxation .true.
atom_frac 0.8749900000000000 0.6283966666666667 0.3333300000000000 O
    constrain_relaxation .true.
atom_frac 0.8749999999999999 0.4991033333333333 0.3333300000000000 Zn
    constrain_relaxation .true.
atom_frac 0.8749999999999999 0.6657700000000001 0.3939400000000000 Zn
    constrain_relaxation .true.
atom_frac 0.8749999999999999 0.4617300000000000 0.3939400000000000 O
    constrain_relaxation .true.
atom_frac 0.9999899999999999 0.6283966666666667 0.4242400000000000 O
    constrain_relaxation .true.
atom_frac 0.7500000000000000 0.4991033333333333 0.4242400000000000 Zn
    constrain_relaxation .true.
atom_frac 0.7500000000000000 0.6657700000000001 0.4848499999999999 Zn
    constrain_relaxation .true.
atom_frac 0.7500000000000000 0.4617300000000000 0.4848499999999999 O
    constrain_relaxation .true.
atom_frac 0.8749900000000000 0.6283966666666667 0.5151500000000000 O
    constrain_relaxation .true.
atom_frac 0.8749999999999999 0.4991033333333333 0.5151500000000000 Zn
    constrain_relaxation .true.
atom_frac 0.8749999999999999 0.6657700000000001 0.5757600000000000 Zn
    constrain_relaxation .true.
atom_frac 0.8749999999999999 0.4617300000000000 0.5757600000000000 O
    constrain_relaxation .true.
atom_frac 1.0007190547541318 0.6276240817138544 0.6060524496794693 O
atom_frac 0.7486531501750523 0.5016814827351953 0.6060234399029695 Zn
atom_frac 0.7479732192087170 0.6648569542724502 0.6695289073303637 Zn
atom_frac 0.7464258892259851 0.4639568369652426 0.6684680910455097 O
atom_frac 0.8750011705845757 0.6276027923463628 0.6936153485641550 O
atom_frac 0.8750021786485216 0.5104351602308210 0.6870268113245062 Zn
atom_frac 0.7500000000000000 0.9991033333333335 0.3030300000000000 Zn
    constrain_relaxation .true.
atom_frac 0.7500000000000000 0.7950633333333335 0.3030300000000000 O
    constrain_relaxation .true.
atom_frac 0.8749900000000000 0.9617300000000001 0.3333300000000000 O
    constrain_relaxation .true.
atom_frac 0.8749999999999999 0.8324366666666667 0.3333300000000000 Zn
    constrain_relaxation .true.
atom_frac 0.8749999999999999 0.9991033333333335 0.3939400000000000 Zn
    constrain_relaxation .true.
atom_frac 0.8749999999999999 0.7950633333333335 0.3939400000000000 O
    constrain_relaxation .true.
atom_frac 0.9999899999999999 0.9617300000000001 0.4242400000000000 O
    constrain_relaxation .true.
atom_frac 0.7500000000000000 0.8324366666666667 0.4242400000000000 Zn
    constrain_relaxation .true.
atom_frac 0.7500000000000000 0.9991033333333335 0.4848499999999999 Zn
    constrain_relaxation .true.
atom_frac 0.7500000000000000 0.7950633333333335 0.4848499999999999 O
    constrain_relaxation .true.
atom_frac 0.8749900000000000 0.9617300000000001 0.5151500000000000 O
    constrain_relaxation .true.
atom_frac 0.8749999999999999 0.8324366666666667 0.5151500000000000 Zn
    constrain_relaxation .true.
atom_frac 0.8749999999999999 0.9991033333333335 0.5757600000000000 Zn
    constrain_relaxation .true.
atom_frac 0.8749999999999999 0.7950633333333335 0.5757600000000000 O
    constrain_relaxation .true.
atom_frac 1.0000378067698841 0.9605715953990345 0.6053016386030425 O
atom_frac 0.7500651130813044 0.8351384983952119 0.6044812673051305 Zn
atom_frac 0.7501342890359962 1.0013341645194880 0.6682720231632309 Zn
atom_frac 0.7494377030196673 0.7927464713529531 0.6664504018493695 O
atom_frac 0.8750013758220988 0.9603221588184688 0.6926404117585623 O
atom_frac 0.8750022036747290 0.8439783673285401 0.6856018625973476 Zn
atom_frac 0.3750071842783082 0.4827237968403509 0.7681874204449798 Pd
atom_frac 0.1279975852783908 0.4821349210762466 0.7829665501516392 Pd
atom_frac 0.2518478683107173 0.3629110872061748 0.7739822127324031 Pd
atom_frac 0.4759721622050194 0.5402862858851687 0.8361325688669415 Pd
atom_frac 0.3750049192520828 0.3921746307951705 0.8411423752338644 Pd
atom_frac 0.2740375009923694 0.5402853867269786 0.8361323461404110 Pd
atom_frac 0.2456541950507383 0.5989553307836580 0.7580150956592726 Pd
atom_frac 0.5043607557589673 0.5989569753217764 0.7580159158637393 Pd
atom_frac 0.4981630767358107 0.3629088946785834 0.7739827501035629 Pd
atom_frac 0.6220125118445240 0.4821334543144329 0.7829667658299194 Pd

