Materials Studio Generated CAR File
  1.0000000
  3.8907000000   0.0000000000   0.0000000000 
 -0.0000000003   3.8907000000   0.0000000000 
 -0.0000000003  -0.0000000003   3.8907000000 
Pd
4 
cartesian
  0.0000000000    0.0000000000    0.0000000000 T T T
  0.0000000000    1.9453500000    1.9453500000 T T T
  1.9453500000    0.0000000000    1.9453500000 T T T
  1.9453500000    1.9453500000    0.0000000000 T T T
