#=======================================================
# FHI-aims file: ./geometry.in
# Created using the Atomic Simulation Environment (ASE)
# Thu Mar  7 11:48:27 2024
#=======================================================
lattice_vector 13.0879999999999992 0.0000000000000000 0.0000000000000000 
lattice_vector 0.0000000000000000 15.8217299999999987 0.0000000000000000 
lattice_vector 0.0000000000000000 0.0000000000000000 31.1700000000000017 
atom_frac 0.0000000000000000 0.3324366666666667 0.3030300000000000 Zn
    constrain_relaxation .true.
atom_frac 0.0000000000000000 0.1283966666666667 0.3030300000000000 O
    constrain_relaxation .true.
atom_frac 0.1249900000000000 0.2950633333333333 0.3333300000000000 O
    constrain_relaxation .true.
atom_frac 0.1250000000000000 0.1657700000000000 0.3333300000000000 Zn
    constrain_relaxation .true.
atom_frac 0.1250000000000000 0.3324366666666667 0.3939400000000000 Zn
    constrain_relaxation .true.
atom_frac 0.1250000000000000 0.1283966666666667 0.3939400000000000 O
    constrain_relaxation .true.
atom_frac 0.2499900000000000 0.2950633333333333 0.4242400000000000 O
    constrain_relaxation .true.
atom_frac 0.0000000000000000 0.1657700000000000 0.4242400000000000 Zn
    constrain_relaxation .true.
atom_frac 0.0000000000000000 0.3324366666666667 0.4848499999999999 Zn
    constrain_relaxation .true.
atom_frac 0.0000000000000000 0.1283966666666667 0.4848499999999999 O
    constrain_relaxation .true.
atom_frac 0.1249900000000000 0.2950633333333333 0.5151500000000000 O
    constrain_relaxation .true.
atom_frac 0.1250000000000000 0.1657700000000000 0.5151500000000000 Zn
    constrain_relaxation .true.
atom_frac 0.1250000000000000 0.3324366666666667 0.5757600000000000 Zn
    constrain_relaxation .true.
atom_frac 0.1250000000000000 0.1283966666666667 0.5757600000000000 O
    constrain_relaxation .true.
atom_frac 0.2496323899394161 0.2927043935432255 0.6045491023596381 O
atom_frac 0.0003037224032621 0.1697046444945477 0.6039987625099906 Zn
atom_frac 0.0016585358553472 0.3377589579832106 0.6697683059834962 Zn
atom_frac -0.0001627760743631 0.1273962124597188 0.6663834031639654 O
atom_frac 0.1270623537378254 0.2947866210228037 0.6951678402902350 O
atom_frac 0.1249835796980273 0.1788107610103967 0.6864107039915743 Zn
atom_frac 0.0000000000000000 0.6657700000000001 0.3030300000000000 Zn
    constrain_relaxation .true.
atom_frac 0.0000000000000000 0.4617300000000000 0.3030300000000000 O
    constrain_relaxation .true.
atom_frac 0.1249900000000000 0.6283966666666667 0.3333300000000000 O
    constrain_relaxation .true.
atom_frac 0.1250000000000000 0.4991033333333333 0.3333300000000000 Zn
    constrain_relaxation .true.
atom_frac 0.1250000000000000 0.6657700000000001 0.3939400000000000 Zn
    constrain_relaxation .true.
atom_frac 0.1250000000000000 0.4617300000000000 0.3939400000000000 O
    constrain_relaxation .true.
atom_frac 0.2499900000000000 0.6283966666666667 0.4242400000000000 O
    constrain_relaxation .true.
atom_frac 0.0000000000000000 0.4991033333333333 0.4242400000000000 Zn
    constrain_relaxation .true.
atom_frac 0.0000000000000000 0.6657700000000001 0.4848499999999999 Zn
    constrain_relaxation .true.
atom_frac 0.0000000000000000 0.4617300000000000 0.4848499999999999 O
    constrain_relaxation .true.
atom_frac 0.1249900000000000 0.6283966666666667 0.5151500000000000 O
    constrain_relaxation .true.
atom_frac 0.1250000000000000 0.4991033333333333 0.5151500000000000 Zn
    constrain_relaxation .true.
atom_frac 0.1250000000000000 0.6657700000000001 0.5757600000000000 Zn
    constrain_relaxation .true.
atom_frac 0.1250000000000000 0.4617300000000000 0.5757600000000000 O
    constrain_relaxation .true.
atom_frac 0.2500448919683754 0.6281814667530056 0.6029702637857701 O
atom_frac 0.0022258464937896 0.5015287133564065 0.6065478789584082 Zn
atom_frac 0.0013116439648443 0.6626840837491896 0.6702644143910661 Zn
atom_frac 0.0048147473619760 0.4632976352870652 0.6691767536652961 O
atom_frac 0.1306466641241425 0.6266999237624638 0.6944069548158039 O
atom_frac 0.1343858363436109 0.5021876178259427 0.7015544830813308 Zn
atom_frac 0.0000000000000000 0.9991033333333335 0.3030300000000000 Zn
    constrain_relaxation .true.
atom_frac 0.0000000000000000 0.7950633333333335 0.3030300000000000 O
    constrain_relaxation .true.
atom_frac 0.1249900000000000 0.9617300000000001 0.3333300000000000 O
    constrain_relaxation .true.
atom_frac 0.1250000000000000 0.8324366666666667 0.3333300000000000 Zn
    constrain_relaxation .true.
atom_frac 0.1250000000000000 0.9991033333333335 0.3939400000000000 Zn
    constrain_relaxation .true.
atom_frac 0.1250000000000000 0.7950633333333335 0.3939400000000000 O
    constrain_relaxation .true.
atom_frac 0.2499900000000000 0.9617300000000001 0.4242400000000000 O
    constrain_relaxation .true.
atom_frac 0.0000000000000000 0.8324366666666667 0.4242400000000000 Zn
    constrain_relaxation .true.
atom_frac 0.0000000000000000 0.9991033333333335 0.4848499999999999 Zn
    constrain_relaxation .true.
atom_frac 0.0000000000000000 0.7950633333333335 0.4848499999999999 O
    constrain_relaxation .true.
atom_frac 0.1249900000000000 0.9617300000000001 0.5151500000000000 O
    constrain_relaxation .true.
atom_frac 0.1250000000000000 0.8324366666666667 0.5151500000000000 Zn
    constrain_relaxation .true.
atom_frac 0.1250000000000000 0.9991033333333335 0.5757600000000000 Zn
    constrain_relaxation .true.
atom_frac 0.1250000000000000 0.7950633333333335 0.5757600000000000 O
    constrain_relaxation .true.
atom_frac 0.2499917996109562 0.9618610258967223 0.6054394429622149 O
atom_frac -0.0001021371291130 0.8349942948775377 0.6042099171404216 Zn
atom_frac -0.0010860360097622 1.0006104696396272 0.6685838541987851 Zn
atom_frac -0.0006456884245639 0.7907977227812030 0.6661728894931553 O
atom_frac 0.1241057179169554 0.9599885965376280 0.6934678512715909 O
atom_frac 0.1233128897829335 0.8441493026405646 0.6853654946261493 Zn
atom_frac 0.2500000000000000 0.3324366666666667 0.3030300000000000 Zn
    constrain_relaxation .true.
atom_frac 0.2500000000000000 0.1283966666666667 0.3030300000000000 O
    constrain_relaxation .true.
atom_frac 0.3749900000000000 0.2950633333333333 0.3333300000000000 O
    constrain_relaxation .true.
atom_frac 0.3750000000000000 0.1657700000000000 0.3333300000000000 Zn
    constrain_relaxation .true.
atom_frac 0.3750000000000000 0.3324366666666667 0.3939400000000000 Zn
    constrain_relaxation .true.
atom_frac 0.3750000000000000 0.1283966666666667 0.3939400000000000 O
    constrain_relaxation .true.
atom_frac 0.4999900000000000 0.2950633333333333 0.4242400000000000 O
    constrain_relaxation .true.
atom_frac 0.2500000000000000 0.1657700000000000 0.4242400000000000 Zn
    constrain_relaxation .true.
atom_frac 0.2500000000000000 0.3324366666666667 0.4848499999999999 Zn
    constrain_relaxation .true.
atom_frac 0.2500000000000000 0.1283966666666667 0.4848499999999999 O
    constrain_relaxation .true.
atom_frac 0.3749900000000000 0.2950633333333333 0.5151500000000000 O
    constrain_relaxation .true.
atom_frac 0.3750000000000000 0.1657700000000000 0.5151500000000000 Zn
    constrain_relaxation .true.
atom_frac 0.3750000000000000 0.3324366666666667 0.5757600000000000 Zn
    constrain_relaxation .true.
atom_frac 0.3750000000000000 0.1283966666666667 0.5757600000000000 O
    constrain_relaxation .true.
atom_frac 0.5012185373781546 0.2960814299632291 0.6058241569455790 O
atom_frac 0.2505166262816197 0.1679267206620489 0.6046818750993771 Zn
atom_frac 0.2465268350944314 0.3373104580225391 0.6656986542603596 Zn
atom_frac 0.2505091295376912 0.1274129323205390 0.6671986014599798 O
atom_frac 0.3804353566594610 0.2924650071481819 0.6838447487148166 O
atom_frac 0.3757358382553565 0.1723133408496972 0.6912026949026637 Zn
atom_frac 0.2500000000000000 0.6657700000000001 0.3030300000000000 Zn
    constrain_relaxation .true.
atom_frac 0.2500000000000000 0.4617300000000000 0.3030300000000000 O
    constrain_relaxation .true.
atom_frac 0.3749900000000000 0.6283966666666667 0.3333300000000000 O
    constrain_relaxation .true.
atom_frac 0.3750000000000000 0.4991033333333333 0.3333300000000000 Zn
    constrain_relaxation .true.
atom_frac 0.3750000000000000 0.6657700000000001 0.3939400000000000 Zn
    constrain_relaxation .true.
atom_frac 0.3750000000000000 0.4617300000000000 0.3939400000000000 O
    constrain_relaxation .true.
atom_frac 0.4999900000000000 0.6283966666666667 0.4242400000000000 O
    constrain_relaxation .true.
atom_frac 0.2500000000000000 0.4991033333333333 0.4242400000000000 Zn
    constrain_relaxation .true.
atom_frac 0.2500000000000000 0.6657700000000001 0.4848499999999999 Zn
    constrain_relaxation .true.
atom_frac 0.2500000000000000 0.4617300000000000 0.4848499999999999 O
    constrain_relaxation .true.
atom_frac 0.3749900000000000 0.6283966666666667 0.5151500000000000 O
    constrain_relaxation .true.
atom_frac 0.3750000000000000 0.4991033333333333 0.5151500000000000 Zn
    constrain_relaxation .true.
atom_frac 0.3750000000000000 0.6657700000000001 0.5757600000000000 Zn
    constrain_relaxation .true.
atom_frac 0.3750000000000000 0.4617300000000000 0.5757600000000000 O
    constrain_relaxation .true.
atom_frac 0.5002614686290906 0.6261711070365489 0.6057639890239955 O
atom_frac 0.2483745575882307 0.5028061642894852 0.6028824642287038 Zn
atom_frac 0.2452764137453642 0.6690075417990208 0.6627467928982199 Zn
atom_frac 0.2488616529047280 0.4605645613383543 0.6617444426369390 O
atom_frac 0.3699338785210039 0.6240814477394777 0.6888408486534824 O
atom_frac 0.3858383713860364 0.5011374098444961 0.6766901863883379 Zn
atom_frac 0.2500000000000000 0.9991033333333335 0.3030300000000000 Zn
    constrain_relaxation .true.
atom_frac 0.2500000000000000 0.7950633333333335 0.3030300000000000 O
    constrain_relaxation .true.
atom_frac 0.3749900000000000 0.9617300000000001 0.3333300000000000 O
    constrain_relaxation .true.
atom_frac 0.3750000000000000 0.8324366666666667 0.3333300000000000 Zn
    constrain_relaxation .true.
atom_frac 0.3750000000000000 0.9991033333333335 0.3939400000000000 Zn
    constrain_relaxation .true.
atom_frac 0.3750000000000000 0.7950633333333335 0.3939400000000000 O
    constrain_relaxation .true.
atom_frac 0.4999900000000000 0.9617300000000001 0.4242400000000000 O
    constrain_relaxation .true.
atom_frac 0.2500000000000000 0.8324366666666667 0.4242400000000000 Zn
    constrain_relaxation .true.
atom_frac 0.2500000000000000 0.9991033333333335 0.4848499999999999 Zn
    constrain_relaxation .true.
atom_frac 0.2500000000000000 0.7950633333333335 0.4848499999999999 O
    constrain_relaxation .true.
atom_frac 0.3749900000000000 0.9617300000000001 0.5151500000000000 O
    constrain_relaxation .true.
atom_frac 0.3750000000000000 0.8324366666666667 0.5151500000000000 Zn
    constrain_relaxation .true.
atom_frac 0.3750000000000000 0.9991033333333335 0.5757600000000000 Zn
    constrain_relaxation .true.
atom_frac 0.3750000000000000 0.7950633333333335 0.5757600000000000 O
    constrain_relaxation .true.
atom_frac 0.5000229243464202 0.9607785896896348 0.6055342977531954 O
atom_frac 0.2497405841381598 0.8371413975591739 0.6032808970126960 Zn
atom_frac 0.2490115846228031 1.0008273177443185 0.6689307300220787 Zn
atom_frac 0.2494389446534458 0.7945058890957074 0.6650959976823581 O
atom_frac 0.3749473715877314 0.9605344398874153 0.6931563566505771 O
atom_frac 0.3749235684465021 0.8450652777089841 0.6847868368624287 Zn
atom_frac 0.5000000000000000 0.3324366666666667 0.3030300000000000 Zn
    constrain_relaxation .true.
atom_frac 0.5000000000000000 0.1283966666666667 0.3030300000000000 O
    constrain_relaxation .true.
atom_frac 0.6249900000000000 0.2950633333333333 0.3333300000000000 O
    constrain_relaxation .true.
atom_frac 0.6250000000000000 0.1657700000000000 0.3333300000000000 Zn
    constrain_relaxation .true.
atom_frac 0.6250000000000000 0.3324366666666667 0.3939400000000000 Zn
    constrain_relaxation .true.
atom_frac 0.6250000000000000 0.1283966666666667 0.3939400000000000 O
    constrain_relaxation .true.
atom_frac 0.7499899999999999 0.2950633333333333 0.4242400000000000 O
    constrain_relaxation .true.
atom_frac 0.5000000000000000 0.1657700000000000 0.4242400000000000 Zn
    constrain_relaxation .true.
atom_frac 0.5000000000000000 0.3324366666666667 0.4848499999999999 Zn
    constrain_relaxation .true.
atom_frac 0.5000000000000000 0.1283966666666667 0.4848499999999999 O
    constrain_relaxation .true.
atom_frac 0.6249900000000000 0.2950633333333333 0.5151500000000000 O
    constrain_relaxation .true.
atom_frac 0.6250000000000000 0.1657700000000000 0.5151500000000000 Zn
    constrain_relaxation .true.
atom_frac 0.6250000000000000 0.3324366666666667 0.5757600000000000 Zn
    constrain_relaxation .true.
atom_frac 0.6250000000000000 0.1283966666666667 0.5757600000000000 O
    constrain_relaxation .true.
atom_frac 0.7498398713729122 0.2936607911314216 0.6056300246958867 O
atom_frac 0.4992894018085177 0.1701150816687151 0.6047812796621103 Zn
atom_frac 0.5024592569036725 0.3550743654249754 0.6648616286692671 Zn
atom_frac 0.5008737825856565 0.1275683719620606 0.6666990834370552 O
atom_frac 0.6231469983151494 0.3002599206966430 0.6937467521430434 O
atom_frac 0.6224966583945130 0.1822481130842701 0.6863933127249641 Zn
atom_frac 0.5000000000000000 0.6657700000000001 0.3030300000000000 Zn
    constrain_relaxation .true.
atom_frac 0.5000000000000000 0.4617300000000000 0.3030300000000000 O
    constrain_relaxation .true.
atom_frac 0.6249900000000000 0.6283966666666667 0.3333300000000000 O
    constrain_relaxation .true.
atom_frac 0.6250000000000000 0.4991033333333333 0.3333300000000000 Zn
    constrain_relaxation .true.
atom_frac 0.6250000000000000 0.6657700000000001 0.3939400000000000 Zn
    constrain_relaxation .true.
atom_frac 0.6250000000000000 0.4617300000000000 0.3939400000000000 O
    constrain_relaxation .true.
atom_frac 0.7499899999999999 0.6283966666666667 0.4242400000000000 O
    constrain_relaxation .true.
atom_frac 0.5000000000000000 0.4991033333333333 0.4242400000000000 Zn
    constrain_relaxation .true.
atom_frac 0.5000000000000000 0.6657700000000001 0.4848499999999999 Zn
    constrain_relaxation .true.
atom_frac 0.5000000000000000 0.4617300000000000 0.4848499999999999 O
    constrain_relaxation .true.
atom_frac 0.6249900000000000 0.6283966666666667 0.5151500000000000 O
    constrain_relaxation .true.
atom_frac 0.6250000000000000 0.4991033333333333 0.5151500000000000 Zn
    constrain_relaxation .true.
atom_frac 0.6250000000000000 0.6657700000000001 0.5757600000000000 Zn
    constrain_relaxation .true.
atom_frac 0.6250000000000000 0.4617300000000000 0.5757600000000000 O
    constrain_relaxation .true.
atom_frac 0.7492210227734573 0.6287886097683127 0.6061457152528003 O
atom_frac 0.5009007421471036 0.4983483262256879 0.6072987005044443 Zn
atom_frac 0.5006177791099291 0.6652693474143930 0.6681868468979860 Zn
atom_frac 0.6200431902303500 0.6177182601171685 0.6958664144711936 O
atom_frac 0.6084384729356765 0.4921792179949168 0.6882767280662369 Zn
atom_frac 0.5000000000000000 0.9991033333333335 0.3030300000000000 Zn
    constrain_relaxation .true.
atom_frac 0.5000000000000000 0.7950633333333335 0.3030300000000000 O
    constrain_relaxation .true.
atom_frac 0.6249900000000000 0.9617300000000001 0.3333300000000000 O
    constrain_relaxation .true.
atom_frac 0.6250000000000000 0.8324366666666667 0.3333300000000000 Zn
    constrain_relaxation .true.
atom_frac 0.6250000000000000 0.9991033333333335 0.3939400000000000 Zn
    constrain_relaxation .true.
atom_frac 0.6250000000000000 0.7950633333333335 0.3939400000000000 O
    constrain_relaxation .true.
atom_frac 0.7499899999999999 0.9617300000000001 0.4242400000000000 O
    constrain_relaxation .true.
atom_frac 0.5000000000000000 0.8324366666666667 0.4242400000000000 Zn
    constrain_relaxation .true.
atom_frac 0.5000000000000000 0.9991033333333335 0.4848499999999999 Zn
    constrain_relaxation .true.
atom_frac 0.5000000000000000 0.7950633333333335 0.4848499999999999 O
    constrain_relaxation .true.
atom_frac 0.6249900000000000 0.9617300000000001 0.5151500000000000 O
    constrain_relaxation .true.
atom_frac 0.6250000000000000 0.8324366666666667 0.5151500000000000 Zn
    constrain_relaxation .true.
atom_frac 0.6250000000000000 0.9991033333333335 0.5757600000000000 Zn
    constrain_relaxation .true.
atom_frac 0.6250000000000000 0.7950633333333335 0.5757600000000000 O
    constrain_relaxation .true.
atom_frac 0.7497940953595943 0.9608512692565511 0.6055427825314060 O
atom_frac 0.5001211532083546 0.8357667094222269 0.6038369849292988 Zn
atom_frac 0.5004007863974180 1.0013482648986125 0.6686976312779173 Zn
atom_frac 0.4998898150084114 0.7914070177023208 0.6662658467101601 O
atom_frac 0.6248153069641859 0.9604276432162596 0.6937071262592758 O
atom_frac 0.6247000831788134 0.8450753206018108 0.6853559664569373 Zn
atom_frac 0.7500000000000000 0.3324366666666667 0.3030300000000000 Zn
    constrain_relaxation .true.
atom_frac 0.7500000000000000 0.1283966666666667 0.3030300000000000 O
    constrain_relaxation .true.
atom_frac 0.8749900000000000 0.2950633333333333 0.3333300000000000 O
    constrain_relaxation .true.
atom_frac 0.8749999999999999 0.1657700000000000 0.3333300000000000 Zn
    constrain_relaxation .true.
atom_frac 0.8749999999999999 0.3324366666666667 0.3939400000000000 Zn
    constrain_relaxation .true.
atom_frac 0.8749999999999999 0.1283966666666667 0.3939400000000000 O
    constrain_relaxation .true.
atom_frac 0.9999899999999999 0.2950633333333333 0.4242400000000000 O
    constrain_relaxation .true.
atom_frac 0.7500000000000000 0.1657700000000000 0.4242400000000000 Zn
    constrain_relaxation .true.
atom_frac 0.7500000000000000 0.3324366666666667 0.4848499999999999 Zn
    constrain_relaxation .true.
atom_frac 0.7500000000000000 0.1283966666666667 0.4848499999999999 O
    constrain_relaxation .true.
atom_frac 0.8749900000000000 0.2950633333333333 0.5151500000000000 O
    constrain_relaxation .true.
atom_frac 0.8749999999999999 0.1657700000000000 0.5151500000000000 Zn
    constrain_relaxation .true.
atom_frac 0.8749999999999999 0.3324366666666667 0.5757600000000000 Zn
    constrain_relaxation .true.
atom_frac 0.8749999999999999 0.1283966666666667 0.5757600000000000 O
    constrain_relaxation .true.
atom_frac 1.0001570054138595 0.2948847082253009 0.6062512908048481 O
atom_frac 0.7497604749710742 0.1684518765015424 0.6039358336772609 Zn
atom_frac 0.7533283611799759 0.3372180847532563 0.6672981213560193 Zn
atom_frac 0.7479040245187214 0.1297626860223039 0.6669308347474752 O
atom_frac 0.8754249459887855 0.2957320337983951 0.6940785908491082 O
atom_frac 0.8751356284847197 0.1803224360942289 0.6854726002346322 Zn
atom_frac 0.7500000000000000 0.6657700000000001 0.3030300000000000 Zn
    constrain_relaxation .true.
atom_frac 0.7500000000000000 0.4617300000000000 0.3030300000000000 O
    constrain_relaxation .true.
atom_frac 0.8749900000000000 0.6283966666666667 0.3333300000000000 O
    constrain_relaxation .true.
atom_frac 0.8749999999999999 0.4991033333333333 0.3333300000000000 Zn
    constrain_relaxation .true.
atom_frac 0.8749999999999999 0.6657700000000001 0.3939400000000000 Zn
    constrain_relaxation .true.
atom_frac 0.8749999999999999 0.4617300000000000 0.3939400000000000 O
    constrain_relaxation .true.
atom_frac 0.9999899999999999 0.6283966666666667 0.4242400000000000 O
    constrain_relaxation .true.
atom_frac 0.7500000000000000 0.4991033333333333 0.4242400000000000 Zn
    constrain_relaxation .true.
atom_frac 0.7500000000000000 0.6657700000000001 0.4848499999999999 Zn
    constrain_relaxation .true.
atom_frac 0.7500000000000000 0.4617300000000000 0.4848499999999999 O
    constrain_relaxation .true.
atom_frac 0.8749900000000000 0.6283966666666667 0.5151500000000000 O
    constrain_relaxation .true.
atom_frac 0.8749999999999999 0.4991033333333333 0.5151500000000000 Zn
    constrain_relaxation .true.
atom_frac 0.8749999999999999 0.6657700000000001 0.5757600000000000 Zn
    constrain_relaxation .true.
atom_frac 0.8749999999999999 0.4617300000000000 0.5757600000000000 O
    constrain_relaxation .true.
atom_frac 1.0002079539375683 0.6276611731117594 0.6061118632067027 O
atom_frac 0.7497164245121406 0.5033450091210625 0.6040797872414827 Zn
atom_frac 0.7473157260847852 0.6615735366889741 0.6699773634398002 Zn
atom_frac 0.7473551371467129 0.4620501469134632 0.6649068601874424 O
atom_frac 0.8740922978640859 0.6256681803494643 0.6950004029810837 O
atom_frac 0.8742524201786197 0.5087343652420345 0.6866155715584722 Zn
atom_frac 0.7500000000000000 0.9991033333333335 0.3030300000000000 Zn
    constrain_relaxation .true.
atom_frac 0.7500000000000000 0.7950633333333335 0.3030300000000000 O
    constrain_relaxation .true.
atom_frac 0.8749900000000000 0.9617300000000001 0.3333300000000000 O
    constrain_relaxation .true.
atom_frac 0.8749999999999999 0.8324366666666667 0.3333300000000000 Zn
    constrain_relaxation .true.
atom_frac 0.8749999999999999 0.9991033333333335 0.3939400000000000 Zn
    constrain_relaxation .true.
atom_frac 0.8749999999999999 0.7950633333333335 0.3939400000000000 O
    constrain_relaxation .true.
atom_frac 0.9999899999999999 0.9617300000000001 0.4242400000000000 O
    constrain_relaxation .true.
atom_frac 0.7500000000000000 0.8324366666666667 0.4242400000000000 Zn
    constrain_relaxation .true.
atom_frac 0.7500000000000000 0.9991033333333335 0.4848499999999999 Zn
    constrain_relaxation .true.
atom_frac 0.7500000000000000 0.7950633333333335 0.4848499999999999 O
    constrain_relaxation .true.
atom_frac 0.8749900000000000 0.9617300000000001 0.5151500000000000 O
    constrain_relaxation .true.
atom_frac 0.8749999999999999 0.8324366666666667 0.5151500000000000 Zn
    constrain_relaxation .true.
atom_frac 0.8749999999999999 0.9991033333333335 0.5757600000000000 Zn
    constrain_relaxation .true.
atom_frac 0.8749999999999999 0.7950633333333335 0.5757600000000000 O
    constrain_relaxation .true.
atom_frac 1.0000079257018419 0.9605733831006827 0.6053167713983276 O
atom_frac 0.7500043238460180 0.8350694998375409 0.6042993519086741 Zn
atom_frac 0.7493652358073991 1.0022793257684008 0.6687996489141621 Zn
atom_frac 0.7474635168486621 0.7894768472914783 0.6664396060474614 O
atom_frac 0.8738750890450581 0.9582680700088267 0.6925359420759643 O
atom_frac 0.8732368937633656 0.8420044317125593 0.6850142224074529 Zn
atom_frac 0.4152945690454819 0.4720746866323012 0.7517223572130425 Pd
atom_frac 0.1459469439202139 0.5194147507980021 0.7901872331029886 Pd
atom_frac 0.2425630015619186 0.3941982772290841 0.7595940235349996 Pd
atom_frac 0.5320853768624271 0.4702076203251959 0.8238912730694290 Pd
atom_frac 0.3762843697300013 0.3635505509648549 0.8232391288623653 Pd
atom_frac 0.3333686922027177 0.5271312837894689 0.8217683228023062 Pd
atom_frac 0.2754597727943031 0.5859582895403751 0.7425742071561539 Pd
atom_frac 0.5814700433639737 0.5596655199172027 0.7592134658198167 Pd
atom_frac 0.4000381507073691 0.3003301464179863 0.7488512205529096 Pd
atom_frac 0.5841312137667829 0.3862613141026789 0.7501831501538033 Pd

