Cs Pb  I 
 1.0000000000000000
     6.3785447952511314   -0.0000000000000000   -0.0000000000000000
    -0.0000000000000000    6.3785447952511314   -0.0000000000000000
     0.0000000000000000    0.0000000000000000    6.3785447952511314
   1   1   3
Selective dynamics
Cartesian
  0.0000000000000000  0.0000000000000000  0.0000000000000000   F   F   F
  3.1892723976255657  3.1892723976255657  3.1892723976255657   F   F   F
  3.1892723976255657  3.1892723976255657  0.0000000000000000   F   F   F
  0.0000000000000000  3.1892723976255657  3.1892723976255657   F   F   F
  3.1892723976255657  0.0000000000000000  3.1892723976255657   F   F   F
