#=======================================================
# FHI-aims file: 200_l1.in
# Created using the Atomic Simulation Environment (ASE)
# Sun Oct  9 10:29:34 2022
#=======================================================
lattice_vector 3.2605970000000002 0.0000000000000000 0.0000000000000000 
lattice_vector 0.0000000000000000 5.2445710531800005 0.0000000000000000 
lattice_vector 0.0000000000000000 0.0000000000000000 30.9412578226594555 
atom 0.0000039441807196 2.6286542994972684 15.9412578226594572 Zn
atom 1.6302945705945771 0.0063687742615388 15.0000000000000000 Zn
atom 3.2605213499173975 4.6219651807077442 15.9412118759058377 O
atom 1.6303741353073082 1.9996796543961490 15.0000459391701533 O
