#=======================================================
# FHI-aims file: /nfshome/store03/users/c.c1809139/surface_energies/100/4/geometry.in
# Created using the Atomic Simulation Environment (ASE)
# Tue Jun 29 17:19:07 2021
#=======================================================
lattice_vector 3.2606000000000002 0.0000000000000000 0.0000000000000000 
lattice_vector 0.0000000000000000 5.2446000000000002 0.0000000000000000 
lattice_vector 0.0000000000000000 0.0000000000000000 32.2363000000000000 
atom 0.7565244120000001 1.1670283920000000 1.9412699860000000 Zn
    constrain_relaxation .true.
atom 2.3868244120000002 1.1670283920000000 4.7651698659999999 Zn
    constrain_relaxation .true.
atom 0.7565244120000001 1.1670283920000000 7.5887473830000003 Zn
atom 2.3868244120000002 1.1670283920000000 10.4126472630000002 Zn
atom 0.7565244120000001 1.1670283920000000 13.2362247800000006 Zn
atom 2.3868570180000002 3.7893283920000003 0.9999700260000000 Zn
    constrain_relaxation .true.
atom 0.7565570180000000 3.7893283920000003 3.8238699060000001 Zn
    constrain_relaxation .true.
atom 2.3868570180000002 3.7893283920000003 6.6474474230000000 Zn
atom 0.7565570180000000 3.7893283920000003 9.4713473029999999 Zn
atom 2.3868570180000002 3.7893283920000003 12.2949248200000003 Zn
atom 0.7564592000000001 3.1603959600000002 1.9412699860000000 O
    constrain_relaxation .true.
atom 2.3867592000000002 3.1603959600000002 4.7648475029999995 O
    constrain_relaxation .true.
atom 0.7564592000000001 3.1603959600000002 7.5887473830000003 O
atom 2.3867592000000002 3.1603959600000002 10.4126472630000002 O
atom 0.7564592000000001 3.1603959600000002 13.2362247800000006 O
atom 2.3869222300000001 0.5380959600000000 0.9999700260000000 O
    constrain_relaxation .true.
atom 0.7566222300000001 0.5380959600000000 3.8238699060000001 O
    constrain_relaxation .true.
atom 2.3869222300000001 0.5380959600000000 6.6474474230000000 O
atom 0.7566222300000001 0.5380959600000000 9.4713473029999999 O
atom 2.3869222300000001 0.5380959600000000 12.2952471830000007 O
