#=======================================================
# FHI-aims file: /nfshome/store02/users/c.sacdjw/python/ase/slab_builder/hex_slab/Pd.in
# Created using the Atomic Simulation Environment (ASE)
# Sun Oct  9 09:34:37 2022
#=======================================================
lattice_vector 3.9565999999999999 0.0000000000000000 0.0000000000000000 
lattice_vector 0.0000000000000000 3.9565999999999999 0.0000000000000000 
lattice_vector 0.0000000000000000 0.0000000000000000 3.9565999999999999 
atom 0.0000000000000000 0.0000000000000000 0.0000000000000000 Pd
atom 0.0000000000000000 1.9782769940000000 1.9782769940000000 Pd
atom 1.9782769940000000 0.0000000000000000 1.9782769940000000 Pd
atom 1.9782769940000000 1.9782769940000000 0.0000000000000000 Pd
