#=======================================================
# FHI-aims file: slab_101b0_l1.in
# Created using the Atomic Simulation Environment (ASE)
# Sun Oct  9 10:42:12 2022
#=======================================================
lattice_vector 8.6267287876032714 0.0000000000000000 0.0000000000000000 
lattice_vector 0.0000000000000000 5.2445710531800005 0.0000000000000000 
lattice_vector 0.0000000000000000 0.0000000000000000 30.3557671708169146 
atom 3.6971664979430958 2.6159167536827317 15.3557671708169146 Zn
atom 1.8485877099387997 5.2382022789184619 15.0000000000000000 Zn
atom 3.6972266678471182 0.6226058724722556 15.3556977018772933 O
atom 1.8485275654751918 3.2448913987838512 15.0000694521012186 O
