#=======================================================
# FHI-aims file: ./geometry.in
# Created using the Atomic Simulation Environment (ASE)
# Sun Feb  7 22:56:59 2021
#=======================================================
lattice_vector 3.2605970000000002 0.0000000000000000 0.0000000000000000 
lattice_vector -1.6302984999999994 2.8237598335033298 0.0000000000000000 
lattice_vector 0.0000000000000000 0.0000000000000000 5.2445710531800005 
atom_frac 0.6666674720851539 0.3333349456924414 0.5012143553481665 Zn
atom_frac 0.3333325292576421 0.6666650595104261 0.0012143556063898 Zn
atom_frac 0.6666512006044584 0.3333023990042451 0.8812856444961797 O
atom_frac 0.3333487980527459 0.6666975957928877 0.3812856445492640 O
